     Program PWSCF v.6.2 (svn rev. 14038) starts on 24Jan2019 at 17:29:53

     Reading input from ./AlfccSEP0DOT0.in
Warning: card &IONS ignored
Warning: card / ignored
Warning: card &CELL ignored
Warning: card / ignored

     Current dimensions of program PWSCF are:
     Max number of different atomic species (ntypx) = 10
     Max number of k-points (npk) =  40000
     Max angular momentum in pseudopotentials (lmaxx) =  3
     Message from routine iosys:
     minimal I/O required, wf_collect reset to FALSE

     Subspace diagonalization in iterative solution of the eigenvalue problem:
     a serial algorithm will be used

     Found symmetry operation: I + ( -0.5000 -0.5000  0.0000)
     This is a supercell, fractional translations are disabled

     bravais-lattice index     =            0
     lattice parameter (alat)  =       7.6325  a.u.
     unit-cell volume          =     444.6267 (a.u.)^3
     number of atoms/cell      =            4
     number of atomic types    =            1
     number of electrons       =        12.00
     number of Kohn-Sham states=           10
     kinetic-energy cutoff     =      25.0000  Ry
     charge density cutoff     =     100.0000  Ry
     convergence threshold     =      1.0E-07
     mixing beta               =       0.7000
     number of iterations used =            8  plain     mixing
     Exchange-correlation      = SLA  PW   PBE  PBE ( 1  4  3  4 0 0)

     celldm(1)=   7.632472  celldm(2)=   0.000000  celldm(3)=   0.000000
     celldm(4)=   0.000000  celldm(5)=   0.000000  celldm(6)=   0.000000

     crystal axes: (cart. coord. in units of alat)
               a(1) = (   1.000000   0.000000   0.000000 )
               a(2) = (   0.000000   1.000000   0.000000 )
               a(3) = (   0.000000   0.000000   1.000000 )

     reciprocal axes: (cart. coord. in units 2 pi/alat)
               b(1) = (  1.000000  0.000000  0.000000 )
               b(2) = (  0.000000  1.000000  0.000000 )
               b(3) = (  0.000000  0.000000  1.000000 )

     PseudoPot. # 1 for Al read from file:
     ./al_pbe_v1.uspp.F.UPF
     MD5 check sum: 0a6289f5291fc8f409219462bc851e1f
     Pseudo is Ultrasoft + core correction, Zval =  3.0
     Generated by new atomic code, or converted to UPF format
     Using radial grid of  893 points,  3 beta functions with:
                l(1) =   0
                l(2) =   1
                l(3) =   2
     Q(r) pseudized with  8 coefficients,  rinner =    0.900   0.900   0.900
                                                       0.900   0.900

     atomic species   valence    mass     pseudopotential
        Al             3.00    26.98150     Al( 1.00)

     48 Sym. Ops., with inversion, found

                                    s                        frac. trans.

      isym =  1     identity

 cryst.   s( 1) = (     1          0          0      )
                  (     0          1          0      )
                  (     0          0          1      )

 cart.    s( 1) = (  1.0000000  0.0000000  0.0000000 )
                  (  0.0000000  1.0000000  0.0000000 )
                  (  0.0000000  0.0000000  1.0000000 )

      isym =  2     180 deg rotation - cart. axis [0,0,1]

[...]

 cryst.   s( 9) = (     0          0          1      )
                  (     0         -1          0      )
                  (     1          0          0      )

 cart.    s( 9) = (  0.0000000  0.0000000  1.0000000 )
                  (  0.0000000 -1.0000000  0.0000000 )
                  (  1.0000000  0.0000000  0.0000000 )

[...]

 cryst.   s(10) = (     0          0         -1      )
                  (     0         -1          0      )
                  (    -1          0          0      )

 cart.    s(10) = (  0.0000000  0.0000000 -1.0000000 )
                  (  0.0000000 -1.0000000  0.0000000 )
                  ( -1.0000000  0.0000000  0.0000000 )

[...]

      isym = 24     120 deg rotation - cart. axis [-1,-1,1]

[...]

      isym = 25     inversion

[...]

      isym = 26     inv. 180 deg rotation - cart. axis [0,0,1]

[...]

      isym = 48     inv. 120 deg rotation - cart. axis [-1,-1,1]

 cryst.   s(48) = (     0         -1          0      )
                  (     0          0          1      )
                  (     1          0          0      )

 cart.    s(48) = (  0.0000000  0.0000000  1.0000000 )
                  ( -1.0000000  0.0000000  0.0000000 )
                  (  0.0000000  1.0000000  0.0000000 )

   Cartesian axes

     site n.     atom                  positions (alat units)
         1           Al  tau(   1) = (   0.0000000   0.0000000   0.0000000  )
         2           Al  tau(   2) = (   0.5000000   0.5000000   0.0000000  )
         3           Al  tau(   3) = (   0.5000000   0.0000000   0.5000000  )
         4           Al  tau(   4) = (   0.0000000   0.5000000   0.5000000  )

   Crystallographic axes

     site n.     atom                  positions (cryst. coord.)
         1           Al  tau(   1) = (  0.0000000  0.0000000  0.0000000  )
         2           Al  tau(   2) = (  0.5000000  0.5000000  0.0000000  )
         3           Al  tau(   3) = (  0.5000000  0.0000000  0.5000000  )
         4           Al  tau(   4) = (  0.0000000  0.5000000  0.5000000  )

     number of k points=   220  Marzari-Vanderbilt smearing, width (Ry)=  0.0100
                       cart. coord. in units 2pi/alat
        k(    1) = (   0.0000000   0.0000000   0.0000000), wk =   0.0003429
        k(    2) = (   0.0000000   0.0000000   0.0555556), wk =   0.0020576
        k(    3) = (   0.0000000   0.0000000   0.1111111), wk =   0.0020576
        k(    4) = (   0.0000000   0.0000000   0.1666667), wk =   0.0020576
        k(    5) = (   0.0000000   0.0000000   0.2222222), wk =   0.0020576
        k(    6) = (   0.0000000   0.0000000   0.2777778), wk =   0.0020576
        k(    7) = (   0.0000000   0.0000000   0.3333333), wk =   0.0020576
        k(    8) = (   0.0000000   0.0000000   0.3888889), wk =   0.0020576
        k(    9) = (   0.0000000   0.0000000   0.4444444), wk =   0.0020576
        k(   10) = (   0.0000000   0.0000000  -0.5000000), wk =   0.0010288
        k(   11) = (   0.0000000   0.0555556   0.0555556), wk =   0.0041152
        k(   12) = (   0.0000000   0.0555556   0.1111111), wk =   0.0082305
        k(   13) = (   0.0000000   0.0555556   0.1666667), wk =   0.0082305
        k(   14) = (   0.0000000   0.0555556   0.2222222), wk =   0.0082305
        k(   15) = (   0.0000000   0.0555556   0.2777778), wk =   0.0082305
        k(   16) = (   0.0000000   0.0555556   0.3333333), wk =   0.0082305
        k(   17) = (   0.0000000   0.0555556   0.3888889), wk =   0.0082305
        k(   18) = (   0.0000000   0.0555556   0.4444444), wk =   0.0082305
        k(   19) = (   0.0000000   0.0555556  -0.5000000), wk =   0.0041152
        k(   20) = (   0.0000000   0.1111111   0.1111111), wk =   0.0041152
        k(   21) = (   0.0000000   0.1111111   0.1666667), wk =   0.0082305
        k(   22) = (   0.0000000   0.1111111   0.2222222), wk =   0.0082305
        k(   23) = (   0.0000000   0.1111111   0.2777778), wk =   0.0082305
        k(   24) = (   0.0000000   0.1111111   0.3333333), wk =   0.0082305
        k(   25) = (   0.0000000   0.1111111   0.3888889), wk =   0.0082305
        k(   26) = (   0.0000000   0.1111111   0.4444444), wk =   0.0082305
        k(   27) = (   0.0000000   0.1111111  -0.5000000), wk =   0.0041152
        k(   28) = (   0.0000000   0.1666667   0.1666667), wk =   0.0041152
        k(   29) = (   0.0000000   0.1666667   0.2222222), wk =   0.0082305
        k(   30) = (   0.0000000   0.1666667   0.2777778), wk =   0.0082305
        k(   31) = (   0.0000000   0.1666667   0.3333333), wk =   0.0082305
        k(   32) = (   0.0000000   0.1666667   0.3888889), wk =   0.0082305
        k(   33) = (   0.0000000   0.1666667   0.4444444), wk =   0.0082305
        k(   34) = (   0.0000000   0.1666667  -0.5000000), wk =   0.0041152
        k(   35) = (   0.0000000   0.2222222   0.2222222), wk =   0.0041152
        k(   36) = (   0.0000000   0.2222222   0.2777778), wk =   0.0082305
        k(   37) = (   0.0000000   0.2222222   0.3333333), wk =   0.0082305
        k(   38) = (   0.0000000   0.2222222   0.3888889), wk =   0.0082305
        k(   39) = (   0.0000000   0.2222222   0.4444444), wk =   0.0082305
        k(   40) = (   0.0000000   0.2222222  -0.5000000), wk =   0.0041152
        k(   41) = (   0.0000000   0.2777778   0.2777778), wk =   0.0041152
        k(   42) = (   0.0000000   0.2777778   0.3333333), wk =   0.0082305
        k(   43) = (   0.0000000   0.2777778   0.3888889), wk =   0.0082305
        k(   44) = (   0.0000000   0.2777778   0.4444444), wk =   0.0082305
        k(   45) = (   0.0000000   0.2777778  -0.5000000), wk =   0.0041152
        k(   46) = (   0.0000000   0.3333333   0.3333333), wk =   0.0041152
        k(   47) = (   0.0000000   0.3333333   0.3888889), wk =   0.0082305
        k(   48) = (   0.0000000   0.3333333   0.4444444), wk =   0.0082305
        k(   49) = (   0.0000000   0.3333333  -0.5000000), wk =   0.0041152
        k(   50) = (   0.0000000   0.3888889   0.3888889), wk =   0.0041152
        k(   51) = (   0.0000000   0.3888889   0.4444444), wk =   0.0082305
        k(   52) = (   0.0000000   0.3888889  -0.5000000), wk =   0.0041152
        k(   53) = (   0.0000000   0.4444444   0.4444444), wk =   0.0041152
        k(   54) = (   0.0000000   0.4444444  -0.5000000), wk =   0.0041152
        k(   55) = (   0.0000000  -0.5000000  -0.5000000), wk =   0.0010288
        k(   56) = (   0.0555556   0.0555556   0.0555556), wk =   0.0027435
        k(   57) = (   0.0555556   0.0555556   0.1111111), wk =   0.0082305
        k(   58) = (   0.0555556   0.0555556   0.1666667), wk =   0.0082305
        k(   59) = (   0.0555556   0.0555556   0.2222222), wk =   0.0082305
        k(   60) = (   0.0555556   0.0555556   0.2777778), wk =   0.0082305
[...]
        k(  206) = (   0.3333333   0.3888889   0.4444444), wk =   0.0164609
        k(  207) = (   0.3333333   0.3888889  -0.5000000), wk =   0.0082305
        k(  208) = (   0.3333333   0.4444444   0.4444444), wk =   0.0082305
        k(  209) = (   0.3333333   0.4444444  -0.5000000), wk =   0.0082305
        k(  210) = (   0.3333333  -0.5000000  -0.5000000), wk =   0.0020576
        k(  211) = (   0.3888889   0.3888889   0.3888889), wk =   0.0027435
        k(  212) = (   0.3888889   0.3888889   0.4444444), wk =   0.0082305
        k(  213) = (   0.3888889   0.3888889  -0.5000000), wk =   0.0041152
        k(  214) = (   0.3888889   0.4444444   0.4444444), wk =   0.0082305
        k(  215) = (   0.3888889   0.4444444  -0.5000000), wk =   0.0082305
        k(  216) = (   0.3888889  -0.5000000  -0.5000000), wk =   0.0020576
        k(  217) = (   0.4444444   0.4444444   0.4444444), wk =   0.0027435
        k(  218) = (   0.4444444   0.4444444  -0.5000000), wk =   0.0041152
        k(  219) = (   0.4444444  -0.5000000  -0.5000000), wk =   0.0020576
        k(  220) = (  -0.5000000  -0.5000000  -0.5000000), wk =   0.0003429

                       cryst. coord.
        k(    1) = (   0.0000000   0.0000000   0.0000000), wk =   0.0003429
        k(    2) = (   0.0000000   0.0000000   0.0555556), wk =   0.0020576
        k(    3) = (   0.0000000   0.0000000   0.1111111), wk =   0.0020576
        k(    4) = (   0.0000000   0.0000000   0.1666667), wk =   0.0020576
        k(    5) = (   0.0000000   0.0000000   0.2222222), wk =   0.0020576
        k(    6) = (   0.0000000   0.0000000   0.2777778), wk =   0.0020576
        k(    7) = (   0.0000000   0.0000000   0.3333333), wk =   0.0020576
        k(    8) = (   0.0000000   0.0000000   0.3888889), wk =   0.0020576
        k(    9) = (   0.0000000   0.0000000   0.4444444), wk =   0.0020576
        k(   10) = (   0.0000000   0.0000000  -0.5000000), wk =   0.0010288
        k(   11) = (   0.0000000   0.0555556   0.0555556), wk =   0.0041152
        k(   12) = (   0.0000000   0.0555556   0.1111111), wk =   0.0082305
        k(   13) = (   0.0000000   0.0555556   0.1666667), wk =   0.0082305
        k(   14) = (   0.0000000   0.0555556   0.2222222), wk =   0.0082305
        k(   15) = (   0.0000000   0.0555556   0.2777778), wk =   0.0082305
        k(   16) = (   0.0000000   0.0555556   0.3333333), wk =   0.0082305
        k(   17) = (   0.0000000   0.0555556   0.3888889), wk =   0.0082305
        k(   18) = (   0.0000000   0.0555556   0.4444444), wk =   0.0082305
        k(   19) = (   0.0000000   0.0555556  -0.5000000), wk =   0.0041152
        k(   20) = (   0.0000000   0.1111111   0.1111111), wk =   0.0041152
        k(   21) = (   0.0000000   0.1111111   0.1666667), wk =   0.0082305
        k(   22) = (   0.0000000   0.1111111   0.2222222), wk =   0.0082305
        k(   23) = (   0.0000000   0.1111111   0.2777778), wk =   0.0082305
        k(   24) = (   0.0000000   0.1111111   0.3333333), wk =   0.0082305
        k(   25) = (   0.0000000   0.1111111   0.3888889), wk =   0.0082305
        k(   26) = (   0.0000000   0.1111111   0.4444444), wk =   0.0082305
        k(   27) = (   0.0000000   0.1111111  -0.5000000), wk =   0.0041152
        k(   28) = (   0.0000000   0.1666667   0.1666667), wk =   0.0041152
        k(   29) = (   0.0000000   0.1666667   0.2222222), wk =   0.0082305
        k(   30) = (   0.0000000   0.1666667   0.2777778), wk =   0.0082305
        k(   31) = (   0.0000000   0.1666667   0.3333333), wk =   0.0082305
        k(   32) = (   0.0000000   0.1666667   0.3888889), wk =   0.0082305
        k(   33) = (   0.0000000   0.1666667   0.4444444), wk =   0.0082305
        k(   34) = (   0.0000000   0.1666667  -0.5000000), wk =   0.0041152
        k(   35) = (   0.0000000   0.2222222   0.2222222), wk =   0.0041152
        k(   36) = (   0.0000000   0.2222222   0.2777778), wk =   0.0082305
        k(   37) = (   0.0000000   0.2222222   0.3333333), wk =   0.0082305
        k(   38) = (   0.0000000   0.2222222   0.3888889), wk =   0.0082305
        k(   39) = (   0.0000000   0.2222222   0.4444444), wk =   0.0082305
        k(   40) = (   0.0000000   0.2222222  -0.5000000), wk =   0.0041152
        k(   41) = (   0.0000000   0.2777778   0.2777778), wk =   0.0041152
        k(   42) = (   0.0000000   0.2777778   0.3333333), wk =   0.0082305
        k(   43) = (   0.0000000   0.2777778   0.3888889), wk =   0.0082305
        k(   44) = (   0.0000000   0.2777778   0.4444444), wk =   0.0082305
        k(   45) = (   0.0000000   0.2777778  -0.5000000), wk =   0.0041152
        k(   46) = (   0.0000000   0.3333333   0.3333333), wk =   0.0041152
        k(   47) = (   0.0000000   0.3333333   0.3888889), wk =   0.0082305
        k(   48) = (   0.0000000   0.3333333   0.4444444), wk =   0.0082305
        k(   49) = (   0.0000000   0.3333333  -0.5000000), wk =   0.0041152
        k(   50) = (   0.0000000   0.3888889   0.3888889), wk =   0.0041152
        k(   51) = (   0.0000000   0.3888889   0.4444444), wk =   0.0082305
        k(   52) = (   0.0000000   0.3888889  -0.5000000), wk =   0.0041152
        k(   53) = (   0.0000000   0.4444444   0.4444444), wk =   0.0041152
        k(   54) = (   0.0000000   0.4444444  -0.5000000), wk =   0.0041152
        k(   55) = (   0.0000000  -0.5000000  -0.5000000), wk =   0.0010288
        k(   56) = (   0.0555556   0.0555556   0.0555556), wk =   0.0027435
        k(   57) = (   0.0555556   0.0555556   0.1111111), wk =   0.0082305
        k(   58) = (   0.0555556   0.0555556   0.1666667), wk =   0.0082305
        k(   59) = (   0.0555556   0.0555556   0.2222222), wk =   0.0082305
        k(   60) = (   0.0555556   0.0555556   0.2777778), wk =   0.0082305
[...]
        k(  206) = (   0.3333333   0.3888889   0.4444444), wk =   0.0164609
        k(  207) = (   0.3333333   0.3888889  -0.5000000), wk =   0.0082305
        k(  208) = (   0.3333333   0.4444444   0.4444444), wk =   0.0082305
        k(  209) = (   0.3333333   0.4444444  -0.5000000), wk =   0.0082305
        k(  210) = (   0.3333333  -0.5000000  -0.5000000), wk =   0.0020576
        k(  211) = (   0.3888889   0.3888889   0.3888889), wk =   0.0027435
        k(  212) = (   0.3888889   0.3888889   0.4444444), wk =   0.0082305
        k(  213) = (   0.3888889   0.3888889  -0.5000000), wk =   0.0041152
        k(  214) = (   0.3888889   0.4444444   0.4444444), wk =   0.0082305
        k(  215) = (   0.3888889   0.4444444  -0.5000000), wk =   0.0082305
        k(  216) = (   0.3888889  -0.5000000  -0.5000000), wk =   0.0020576
        k(  217) = (   0.4444444   0.4444444   0.4444444), wk =   0.0027435
        k(  218) = (   0.4444444   0.4444444  -0.5000000), wk =   0.0041152
        k(  219) = (   0.4444444  -0.5000000  -0.5000000), wk =   0.0020576
        k(  220) = (  -0.5000000  -0.5000000  -0.5000000), wk =   0.0003429

     Initial potential from superposition of free atoms

     starting charge   11.99014, renormalised to   12.00000
     Starting wfc are   16 randomized atomic wfcs

     Self-consistent Calculation

     iteration #  1     ecut=    25.00 Ry     beta= 0.70
     Davidson diagonalization with overlap
     ethr =  1.00E-02,  avg # of iterations =  3.1

     Threshold (ethr) on eigenvalues was too large:
     Diagonalizing with lowered threshold

     Davidson diagonalization with overlap
     ethr =  2.07E-04,  avg # of iterations =  2.1

     total energy              =     -26.83059564 Ry
     Harris-Foulkes estimate   =     -26.83841320 Ry
     estimated scf accuracy    <       0.02460253 Ry

[...]

     total energy              =     -26.83074148 Ry
     Harris-Foulkes estimate   =     -26.83074159 Ry
     estimated scf accuracy    <       0.00000017 Ry

     iteration #  5     ecut=    25.00 Ry     beta= 0.70
     Davidson diagonalization with overlap
     ethr =  1.39E-09,  avg # of iterations =  2.1

     End of self-consistent calculation

          k = 0.0000 0.0000 0.0000 (   925 PWs)   bands (ev):

    -3.2563   4.9709   4.9709   4.9709   6.3363   6.3368   6.3368  13.2265
    13.2265  13.2267

     occupation numbers
     1.0000   1.0000   1.0000   1.0000   1.0000   1.0000   1.0000   0.0000
     0.0000   0.0000

[...]

          k = 0.4444-0.5000-0.5000 (   948 PWs)   bands (ev):

[...]

          k =-0.5000-0.5000-0.5000 (   968 PWs)   bands (ev):

     3.2952   3.2955   3.2955   3.2955   3.5464   3.5467   3.5467   3.5467
    19.2286  19.2288

     occupation numbers
     1.0000   1.0000   1.0000   1.0000   1.0000   1.0000   1.0000   1.0000
     0.0000   0.0000

     the Fermi energy is     7.9479 ev

!    total energy              =     -26.83074150 Ry
     Harris-Foulkes estimate   =     -26.83074151 Ry
     estimated scf accuracy    <       0.00000003 Ry

     The total energy is the sum of the following terms:

     one-electron contribution =      11.93859849 Ry
     hartree contribution      =       0.03339082 Ry
     xc contribution           =     -17.17728755 Ry
     ewald contribution        =     -21.62537170 Ry
     smearing contrib. (-TS)   =      -0.00007155 Ry

     convergence has been achieved in   5 iterations

     General routines

     Parallel routines

   This run was terminated on:  17:30:19  24Jan2019

   JOB DONE.