     Program PWSCF v.6.2 (svn rev. 14038) starts on 29Jan2019 at  2:52:14

     Reading input from ./e24ac1257d94.in
Warning: card &CELL ignored
Warning: card / ignored

     Current dimensions of program PWSCF are:
     Max number of different atomic species (ntypx) = 10
     Max number of k-points (npk) =  40000
     Max angular momentum in pseudopotentials (lmaxx) =  3
     Message from routine iosys:
     minimal I/O required, wf_collect reset to FALSE

     Subspace diagonalization in iterative solution of the eigenvalue problem:
     a serial algorithm will be used

     bravais-lattice index     =            0
     lattice parameter (alat)  =       5.5897  a.u.
     unit-cell volume          =     123.4967 (a.u.)^3
     number of atoms/cell      =            1
     number of atomic types    =            1
     number of electrons       =         3.00
     number of Kohn-Sham states=            6
     kinetic-energy cutoff     =      35.0000  Ry
     charge density cutoff     =     140.0000  Ry
     convergence threshold     =      1.0E-06
     mixing beta               =       0.7000
     number of iterations used =            8  plain     mixing
     Exchange-correlation      = SLA  PW   PBE  PBE ( 1  4  3  4 0 0)
     nstep                     =           50

     celldm(1)=   5.589720  celldm(2)=   0.000000  celldm(3)=   0.000000
     celldm(4)=   0.000000  celldm(5)=   0.000000  celldm(6)=   0.000000

     crystal axes: (cart. coord. in units of alat)
               a(1) = (   0.866025   0.000000   0.500000 )
               a(2) = (   0.288675   0.816497   0.500000 )
               a(3) = (   0.000000   0.000000   1.000000 )

     reciprocal axes: (cart. coord. in units 2 pi/alat)
               b(1) = (  1.154700 -0.408248  0.000000 )
               b(2) = (  0.000000  1.224745  0.000000 )
               b(3) = ( -0.577350 -0.408248  1.000000 )

     PseudoPot. # 1 for Al read from file:
     ./al_pbe_v1.uspp.F.UPF
     MD5 check sum: 0a6289f5291fc8f409219462bc851e1f
     Pseudo is Ultrasoft + core correction, Zval =  3.0
     Generated by new atomic code, or converted to UPF format
     Using radial grid of  893 points,  3 beta functions with:
                l(1) =   0
                l(2) =   1
                l(3) =   2
     Q(r) pseudized with  8 coefficients,  rinner =    0.900   0.900   0.900
                                                       0.900   0.900

     atomic species   valence    mass     pseudopotential
        Al             3.00    26.98150     Al( 1.00)

      4 Sym. Ops., with inversion, found

                                    s                        frac. trans.

      isym =  1     identity

 cryst.   s( 1) = (     1          0          0      )
                  (     0          1          0      )
                  (     0          0          1      )

 cart.    s( 1) = (  1.0000000  0.0000000  0.0000000 )
                  (  0.0000000  1.0000000  0.0000000 )
                  (  0.0000000 -0.0000000  1.0000000 )

      isym =  2     180 deg rotation - cart. axis [0,0,1]

[...]

      isym =  3     inversion

[...]

      isym =  4     inv. 180 deg rotation - cart. axis [0,0,1]

 cryst.   s( 4) = (     1          0         -1      )
                  (     0          1         -1      )
                  (     0          0         -1      )

 cart.    s( 4) = (  1.0000000  0.0000000  0.0000000 )
                  (  0.0000000  1.0000000  0.0000000 )
                  ( -0.0000004 -0.0000003 -1.0000000 )

   Cartesian axes

     site n.     atom                  positions (alat units)
         1           Al  tau(   1) = (   0.0000000   0.0000000   0.0000000  )

   Crystallographic axes

     site n.     atom                  positions (cryst. coord.)
         1           Al  tau(   1) = (  0.0000000  0.0000000  0.0000000  )

     number of k points=  2112  Marzari-Vanderbilt smearing, width (Ry)=  0.0100
                       cart. coord. in units 2pi/alat
        k(    1) = (   0.0000000   0.0000000   0.0000000), wk =   0.0002500
        k(    2) = (  -0.0288675  -0.0204124   0.0500000), wk =   0.0010000
        k(    3) = (  -0.0577350  -0.0408248   0.1000000), wk =   0.0010000
        k(    4) = (  -0.0866025  -0.0612372   0.1500000), wk =   0.0010000
        k(    5) = (  -0.1154700  -0.0816496   0.2000000), wk =   0.0010000
        k(    6) = (  -0.1443375  -0.1020621   0.2499999), wk =   0.0010000
        k(    7) = (  -0.1732050  -0.1224745   0.2999999), wk =   0.0010000
        k(    8) = (  -0.2020725  -0.1428869   0.3499999), wk =   0.0010000
        k(    9) = (  -0.2309400  -0.1632993   0.3999999), wk =   0.0010000
        k(   10) = (  -0.2598075  -0.1837117   0.4499999), wk =   0.0010000
        k(   11) = (   0.2886750   0.2041241  -0.4999999), wk =   0.0005000
        k(   12) = (   0.0000000   0.0612372   0.0000000), wk =   0.0005000
        k(   13) = (  -0.0288675   0.0408248   0.0500000), wk =   0.0010000
        k(   14) = (  -0.0577350   0.0204124   0.1000000), wk =   0.0010000
        k(   15) = (  -0.0866025   0.0000000   0.1500000), wk =   0.0010000
        k(   16) = (  -0.1154700  -0.0204124   0.2000000), wk =   0.0010000
        k(   17) = (  -0.1443375  -0.0408248   0.2499999), wk =   0.0010000
        k(   18) = (  -0.1732050  -0.0612372   0.2999999), wk =   0.0010000
        k(   19) = (  -0.2020725  -0.0816496   0.3499999), wk =   0.0010000
        k(   20) = (  -0.2309400  -0.1020620   0.3999999), wk =   0.0010000
        k(   21) = (  -0.2598075  -0.1224745   0.4499999), wk =   0.0010000
        k(   22) = (   0.2886750   0.2653614  -0.4999999), wk =   0.0010000
        k(   23) = (   0.2598075   0.2449489  -0.4499999), wk =   0.0010000
        k(   24) = (   0.2309400   0.2245365  -0.3999999), wk =   0.0010000
        k(   25) = (   0.2020725   0.2041241  -0.3499999), wk =   0.0010000
        k(   26) = (   0.1732050   0.1837117  -0.2999999), wk =   0.0010000
        k(   27) = (   0.1443375   0.1632993  -0.2499999), wk =   0.0010000
        k(   28) = (   0.1154700   0.1428869  -0.2000000), wk =   0.0010000
        k(   29) = (   0.0866025   0.1224745  -0.1500000), wk =   0.0010000
        k(   30) = (   0.0577350   0.1020621  -0.1000000), wk =   0.0010000
        k(   31) = (   0.0288675   0.0816497  -0.0500000), wk =   0.0010000
        k(   32) = (   0.0000000   0.1224745   0.0000000), wk =   0.0005000
        k(   33) = (  -0.0288675   0.1020621   0.0500000), wk =   0.0010000
        k(   34) = (  -0.0577350   0.0816497   0.1000000), wk =   0.0010000
        k(   35) = (  -0.0866025   0.0612373   0.1500000), wk =   0.0010000
        k(   36) = (  -0.1154700   0.0408248   0.2000000), wk =   0.0010000
        k(   37) = (  -0.1443375   0.0204124   0.2499999), wk =   0.0010000
        k(   38) = (  -0.1732050   0.0000000   0.2999999), wk =   0.0010000
        k(   39) = (  -0.2020725  -0.0204124   0.3499999), wk =   0.0010000
        k(   40) = (  -0.2309400  -0.0408248   0.3999999), wk =   0.0010000
        k(   41) = (  -0.2598075  -0.0612372   0.4499999), wk =   0.0010000
        k(   42) = (   0.2886750   0.3265986  -0.4999999), wk =   0.0010000
        k(   43) = (   0.2598075   0.3061862  -0.4499999), wk =   0.0010000
        k(   44) = (   0.2309400   0.2857738  -0.3999999), wk =   0.0010000
        k(   45) = (   0.2020725   0.2653614  -0.3499999), wk =   0.0010000
        k(   46) = (   0.1732050   0.2449490  -0.2999999), wk =   0.0010000
        k(   47) = (   0.1443375   0.2245365  -0.2499999), wk =   0.0010000
        k(   48) = (   0.1154700   0.2041241  -0.2000000), wk =   0.0010000
        k(   49) = (   0.0866025   0.1837117  -0.1500000), wk =   0.0010000
        k(   50) = (   0.0577350   0.1632993  -0.1000000), wk =   0.0010000
        k(   51) = (   0.0288675   0.1428869  -0.0500000), wk =   0.0010000
        k(   52) = (   0.0000000   0.1837117   0.0000000), wk =   0.0005000
        k(   53) = (  -0.0288675   0.1632993   0.0500000), wk =   0.0010000
        k(   54) = (  -0.0577350   0.1428869   0.1000000), wk =   0.0010000
        k(   55) = (  -0.0866025   0.1224745   0.1500000), wk =   0.0010000
        k(   56) = (  -0.1154700   0.1020621   0.2000000), wk =   0.0010000
        k(   57) = (  -0.1443375   0.0816497   0.2499999), wk =   0.0010000
        k(   58) = (  -0.1732050   0.0612373   0.2999999), wk =   0.0010000
        k(   59) = (  -0.2020725   0.0408248   0.3499999), wk =   0.0010000
        k(   60) = (  -0.2309400   0.0204124   0.3999999), wk =   0.0010000
[...]
        k( 2098) = (   0.5484827  -0.2857737  -0.0500000), wk =   0.0010000
        k( 2099) = (   0.5196152  -0.2449489   0.0000000), wk =   0.0005000
        k( 2100) = (   0.5773502  -0.2041241  -0.1000000), wk =   0.0005000
        k( 2101) = (   0.5484827  -0.2245365  -0.0500000), wk =   0.0010000
        k( 2102) = (  -0.5773502   0.2041241   0.0000000), wk =   0.0002500
        k( 2103) = (  -0.5773502   0.2653613   0.0000000), wk =   0.0005000
        k( 2104) = (  -0.5773502   0.3265986   0.0000000), wk =   0.0005000
        k( 2105) = (  -0.5773502   0.3878358   0.0000000), wk =   0.0005000
        k( 2106) = (  -0.5773502   0.4490730   0.0000000), wk =   0.0005000
        k( 2107) = (  -0.5773502   0.5103103   0.0000000), wk =   0.0005000
        k( 2108) = (  -0.5773502   0.5715475   0.0000000), wk =   0.0005000
        k( 2109) = (  -0.5773502   0.6327848   0.0000000), wk =   0.0005000
        k( 2110) = (  -0.5773502   0.6940220   0.0000000), wk =   0.0005000
        k( 2111) = (  -0.5773502   0.7552593   0.0000000), wk =   0.0005000
        k( 2112) = (  -0.5773502  -0.4082484   0.0000000), wk =   0.0002500

                       cryst. coord.
        k(    1) = (   0.0000000   0.0000000   0.0000000), wk =   0.0002500
        k(    2) = (   0.0000000   0.0000000   0.0500000), wk =   0.0010000
        k(    3) = (   0.0000000   0.0000000   0.1000000), wk =   0.0010000
        k(    4) = (   0.0000000   0.0000000   0.1500000), wk =   0.0010000
        k(    5) = (   0.0000000   0.0000000   0.2000000), wk =   0.0010000
        k(    6) = (   0.0000000   0.0000000   0.2500000), wk =   0.0010000
        k(    7) = (   0.0000000   0.0000000   0.3000000), wk =   0.0010000
        k(    8) = (   0.0000000   0.0000000   0.3500000), wk =   0.0010000
        k(    9) = (   0.0000000   0.0000000   0.4000000), wk =   0.0010000
        k(   10) = (   0.0000000   0.0000000   0.4500000), wk =   0.0010000
        k(   11) = (  -0.0000000   0.0000000  -0.5000000), wk =   0.0005000
        k(   12) = (   0.0000000   0.0500000   0.0000000), wk =   0.0005000
        k(   13) = (   0.0000000   0.0500000   0.0500000), wk =   0.0010000
        k(   14) = (   0.0000000   0.0500000   0.1000000), wk =   0.0010000
        k(   15) = (   0.0000000   0.0500000   0.1500000), wk =   0.0010000
        k(   16) = (   0.0000000   0.0500000   0.2000000), wk =   0.0010000
        k(   17) = (   0.0000000   0.0500000   0.2500000), wk =   0.0010000
        k(   18) = (   0.0000000   0.0500000   0.3000000), wk =   0.0010000
        k(   19) = (   0.0000000   0.0500000   0.3500000), wk =   0.0010000
        k(   20) = (   0.0000000   0.0500000   0.4000000), wk =   0.0010000
        k(   21) = (   0.0000000   0.0500000   0.4500000), wk =   0.0010000
        k(   22) = (  -0.0000000   0.0500000  -0.5000000), wk =   0.0010000
        k(   23) = (  -0.0000000   0.0500000  -0.4500000), wk =   0.0010000
        k(   24) = (  -0.0000000   0.0500000  -0.4000000), wk =   0.0010000
        k(   25) = (   0.0000000   0.0500000  -0.3500000), wk =   0.0010000
        k(   26) = (   0.0000000   0.0500000  -0.3000000), wk =   0.0010000
        k(   27) = (  -0.0000000   0.0500000  -0.2500000), wk =   0.0010000
        k(   28) = (   0.0000000   0.0500000  -0.2000000), wk =   0.0010000
        k(   29) = (   0.0000000   0.0500000  -0.1500000), wk =   0.0010000
        k(   30) = (   0.0000000   0.0500000  -0.1000000), wk =   0.0010000
        k(   31) = (  -0.0000000   0.0500000  -0.0500000), wk =   0.0010000
        k(   32) = (   0.0000000   0.1000000   0.0000000), wk =   0.0005000
        k(   33) = (   0.0000000   0.1000000   0.0500000), wk =   0.0010000
        k(   34) = (   0.0000000   0.1000000   0.1000000), wk =   0.0010000
        k(   35) = (   0.0000000   0.1000000   0.1500000), wk =   0.0010000
        k(   36) = (   0.0000000   0.1000000   0.2000000), wk =   0.0010000
        k(   37) = (   0.0000000   0.1000000   0.2500000), wk =   0.0010000
        k(   38) = (   0.0000000   0.1000000   0.3000000), wk =   0.0010000
        k(   39) = (   0.0000000   0.1000000   0.3500000), wk =   0.0010000
        k(   40) = (   0.0000000   0.1000000   0.4000000), wk =   0.0010000
        k(   41) = (   0.0000000   0.1000000   0.4500000), wk =   0.0010000
        k(   42) = (  -0.0000000   0.1000000  -0.5000000), wk =   0.0010000
        k(   43) = (  -0.0000000   0.1000000  -0.4500000), wk =   0.0010000
        k(   44) = (  -0.0000000   0.1000000  -0.4000000), wk =   0.0010000
        k(   45) = (   0.0000000   0.1000000  -0.3500000), wk =   0.0010000
        k(   46) = (   0.0000000   0.1000000  -0.3000000), wk =   0.0010000
        k(   47) = (  -0.0000000   0.1000000  -0.2500000), wk =   0.0010000
        k(   48) = (   0.0000000   0.1000000  -0.2000000), wk =   0.0010000
        k(   49) = (   0.0000000   0.1000000  -0.1500000), wk =   0.0010000
        k(   50) = (   0.0000000   0.1000000  -0.1000000), wk =   0.0010000
        k(   51) = (  -0.0000000   0.1000000  -0.0500000), wk =   0.0010000
        k(   52) = (   0.0000000   0.1500000   0.0000000), wk =   0.0005000
        k(   53) = (   0.0000000   0.1500000   0.0500000), wk =   0.0010000
        k(   54) = (   0.0000000   0.1500000   0.1000000), wk =   0.0010000
        k(   55) = (   0.0000000   0.1500000   0.1500000), wk =   0.0010000
        k(   56) = (   0.0000000   0.1500000   0.2000000), wk =   0.0010000
        k(   57) = (   0.0000000   0.1500000   0.2500000), wk =   0.0010000
        k(   58) = (   0.0000000   0.1500000   0.3000000), wk =   0.0010000
        k(   59) = (   0.0000000   0.1500000   0.3500000), wk =   0.0010000
        k(   60) = (   0.0000000   0.1500000   0.4000000), wk =   0.0010000
[...]
        k( 2098) = (   0.4500000  -0.1000000  -0.0500000), wk =   0.0010000
        k( 2099) = (   0.4500000  -0.0500000   0.0000000), wk =   0.0005000
        k( 2100) = (   0.4500000  -0.0500000  -0.1000000), wk =   0.0005000
        k( 2101) = (   0.4500000  -0.0500000  -0.0500000), wk =   0.0010000
        k( 2102) = (  -0.5000000   0.0000000   0.0000000), wk =   0.0002500
        k( 2103) = (  -0.5000000   0.0500000   0.0000000), wk =   0.0005000
        k( 2104) = (  -0.5000000   0.1000000   0.0000000), wk =   0.0005000
        k( 2105) = (  -0.5000000   0.1500000   0.0000000), wk =   0.0005000
        k( 2106) = (  -0.5000000   0.2000000   0.0000000), wk =   0.0005000
        k( 2107) = (  -0.5000000   0.2500000   0.0000000), wk =   0.0005000
        k( 2108) = (  -0.5000000   0.3000000   0.0000000), wk =   0.0005000
        k( 2109) = (  -0.5000000   0.3500000   0.0000000), wk =   0.0005000
        k( 2110) = (  -0.5000000   0.4000000   0.0000000), wk =   0.0005000
        k( 2111) = (  -0.5000000   0.4500000   0.0000000), wk =   0.0005000
        k( 2112) = (  -0.5000000  -0.5000000   0.0000000), wk =   0.0002500

     Initial potential from superposition of free atoms

     starting charge    2.99753, renormalised to    3.00000
     Starting wfc are    4 randomized atomic wfcs +    2 random wfc

     Self-consistent Calculation

     iteration #  1     ecut=    35.00 Ry     beta= 0.70
     Davidson diagonalization with overlap
     ethr =  1.00E-02,  avg # of iterations =  4.6

     Threshold (ethr) on eigenvalues was too large:
     Diagonalizing with lowered threshold

     Davidson diagonalization with overlap
     ethr =  2.03E-04,  avg # of iterations =  1.4

     total energy              =      -6.70475375 Ry
     Harris-Foulkes estimate   =      -6.70667124 Ry
     estimated scf accuracy    <       0.00609068 Ry

[...]

     total energy              =      -6.70481087 Ry
     Harris-Foulkes estimate   =      -6.70481107 Ry
     estimated scf accuracy    <       0.00000120 Ry

     iteration #  4     ecut=    35.00 Ry     beta= 0.70
     Davidson diagonalization with overlap
     ethr =  4.00E-08,  avg # of iterations =  2.2

     End of self-consistent calculation

          k = 0.0000 0.0000 0.0000 (   411 PWs)   bands (ev):

    -3.5865  18.9360  18.9360  19.5243  19.5243  19.5243

     occupation numbers
     1.0000   0.0000   0.0000   0.0000   0.0000   0.0000

          k =-0.0289-0.0204 0.0500 (   423 PWs)   bands (ev):

[...]

          k = 0.5485-0.2245-0.0500 (   428 PWs)   bands (ev):

[...]

          k =-0.5774-0.4082 0.0000 (   444 PWs)   bands (ev):

     4.1848   5.2835  11.9895  11.9895  12.1440  14.9612

     occupation numbers
     1.0000   1.0000   0.0000   0.0000   0.0000   0.0000

     the Fermi energy is     6.9066 ev

!    total energy              =      -6.70481122 Ry
     Harris-Foulkes estimate   =      -6.70481123 Ry
     estimated scf accuracy    <       0.00000001 Ry

     The total energy is the sum of the following terms:

     one-electron contribution =       2.74631229 Ry
     hartree contribution      =       0.00825378 Ry
     xc contribution           =      -4.23945506 Ry
     ewald contribution        =      -5.21991833 Ry
     smearing contrib. (-TS)   =      -0.00000390 Ry

     convergence has been achieved in   4 iterations

     Forces acting on atoms (cartesian axes, Ry/au):

     atom    1 type  1   force =     0.00000000    0.00000000    0.00000000
     The non-local contrib.  to forces
     atom    1 type  1   force =     0.00000000    0.00000000    0.00000000
     The ionic contribution  to forces
     atom    1 type  1   force =     0.00000000    0.00000000    0.00000000
     The local contribution  to forces
     atom    1 type  1   force =     0.00000000    0.00000000   -0.00000000
     The core correction contribution to forces
     atom    1 type  1   force =    -0.00000000   -0.00000000   -0.00000000
     The Hubbard contrib.    to forces
     atom    1 type  1   force =     0.00000000    0.00000000    0.00000000
     The SCF correction term to forces
     atom    1 type  1   force =    -0.00000000    0.00000000    0.00000000

     Total force =     0.000000     Total SCF correction =     0.000000

     BFGS Geometry Optimization

     bfgs converged in   1 scf cycles and   0 bfgs steps
     (criteria: energy <  1.0E-04 Ry, force <  1.0E-03 Ry/Bohr)

     End of BFGS Geometry Optimization

     Final energy   =      -6.7048112177 Ry
Begin final coordinates

ATOMIC_POSITIONS (crystal)
Al       0.000000000   0.000000000   0.000000000
End final coordinates

     General routines

     Parallel routines

   This run was terminated on:   3: 7: 8  29Jan2019

   JOB DONE.