     Program PWSCF v.6.2 (svn rev. 14038) starts on 24Jan2019 at 17: 3: 1

     Reading input from ./AlfccSEPNEG0DOT04624629770738725.in
Warning: card &IONS ignored
Warning: card / ignored
Warning: card &CELL ignored
Warning: card / ignored

     Current dimensions of program PWSCF are:
     Max number of different atomic species (ntypx) = 10
     Max number of k-points (npk) =  40000
     Max angular momentum in pseudopotentials (lmaxx) =  3
     Message from routine iosys:
     minimal I/O required, wf_collect reset to FALSE

     Subspace diagonalization in iterative solution of the eigenvalue problem:
     a serial algorithm will be used

     Found symmetry operation: I + ( -0.5000 -0.5000  0.0000)
     This is a supercell, fractional translations are disabled

     bravais-lattice index     =            0
     lattice parameter (alat)  =       7.6325  a.u.
     unit-cell volume          =     424.0644 (a.u.)^3
     number of atoms/cell      =            4
     number of atomic types    =            1
     number of electrons       =        12.00
     number of Kohn-Sham states=           10
     kinetic-energy cutoff     =      25.0000  Ry
     charge density cutoff     =     100.0000  Ry
     convergence threshold     =      1.0E-07
     mixing beta               =       0.7000
     number of iterations used =            8  plain     mixing
     Exchange-correlation      = SLA  PW   PBE  PBE ( 1  4  3  4 0 0)

     celldm(1)=   7.632472  celldm(2)=   0.000000  celldm(3)=   0.000000
     celldm(4)=   0.000000  celldm(5)=   0.000000  celldm(6)=   0.000000

     crystal axes: (cart. coord. in units of alat)
               a(1) = (   1.000000   0.000000   0.000000 )
               a(2) = (   0.000000   1.000000   0.000000 )
               a(3) = (   0.000000   0.000000   0.953754 )

     reciprocal axes: (cart. coord. in units 2 pi/alat)
               b(1) = (  1.000000  0.000000  0.000000 )
               b(2) = (  0.000000  1.000000  0.000000 )
               b(3) = (  0.000000  0.000000  1.048489 )

     PseudoPot. # 1 for Al read from file:
     ./al_pbe_v1.uspp.F.UPF
     MD5 check sum: 0a6289f5291fc8f409219462bc851e1f
     Pseudo is Ultrasoft + core correction, Zval =  3.0
     Generated by new atomic code, or converted to UPF format
     Using radial grid of  893 points,  3 beta functions with:
                l(1) =   0
                l(2) =   1
                l(3) =   2
     Q(r) pseudized with  8 coefficients,  rinner =    0.900   0.900   0.900
                                                       0.900   0.900

     atomic species   valence    mass     pseudopotential
        Al             3.00    26.98150     Al( 1.00)

     16 Sym. Ops., with inversion, found

                                    s                        frac. trans.

      isym =  1     identity

 cryst.   s( 1) = (     1          0          0      )
                  (     0          1          0      )
                  (     0          0          1      )

 cart.    s( 1) = (  1.0000000  0.0000000  0.0000000 )
                  (  0.0000000  1.0000000  0.0000000 )
                  (  0.0000000  0.0000000  1.0000000 )

      isym =  2     180 deg rotation - cart. axis [0,0,1]

[...]

      isym =  8      90 deg rotation - cart. axis [0,0,1]

[...]

      isym =  9     inversion

 cryst.   s( 9) = (    -1          0          0      )
                  (     0         -1          0      )
                  (     0          0         -1      )

 cart.    s( 9) = ( -1.0000000  0.0000000  0.0000000 )
                  (  0.0000000 -1.0000000  0.0000000 )
                  (  0.0000000  0.0000000 -1.0000000 )

      isym = 10     inv. 180 deg rotation - cart. axis [0,0,1]

 cryst.   s(10) = (     1          0          0      )
                  (     0          1          0      )
                  (     0          0         -1      )

 cart.    s(10) = (  1.0000000  0.0000000  0.0000000 )
                  (  0.0000000  1.0000000  0.0000000 )
                  (  0.0000000  0.0000000 -1.0000000 )

[...]

      isym = 16     inv.  90 deg rotation - cart. axis [0,0,1]

 cryst.   s(16) = (     0         -1          0      )
                  (     1          0          0      )
                  (     0          0         -1      )

 cart.    s(16) = (  0.0000000  1.0000000  0.0000000 )
                  ( -1.0000000  0.0000000  0.0000000 )
                  (  0.0000000  0.0000000 -1.0000000 )

   Cartesian axes

     site n.     atom                  positions (alat units)
         1           Al  tau(   1) = (   0.0000000   0.0000000   0.0000000  )
         2           Al  tau(   2) = (   0.5000000   0.5000000   0.0000000  )
         3           Al  tau(   3) = (   0.5000000   0.0000000   0.4768768  )
         4           Al  tau(   4) = (   0.0000000   0.5000000   0.4768768  )

   Crystallographic axes

     site n.     atom                  positions (cryst. coord.)
         1           Al  tau(   1) = (  0.0000000  0.0000000  0.0000000  )
         2           Al  tau(   2) = (  0.5000000  0.5000000  0.0000000  )
         3           Al  tau(   3) = (  0.5000000  0.0000000  0.5000000  )
         4           Al  tau(   4) = (  0.0000000  0.5000000  0.5000000  )

     number of k points=   550  Marzari-Vanderbilt smearing, width (Ry)=  0.0100
                       cart. coord. in units 2pi/alat
        k(    1) = (   0.0000000   0.0000000   0.0000000), wk =   0.0003429
        k(    2) = (   0.0000000   0.0000000   0.0582494), wk =   0.0006859
        k(    3) = (   0.0000000   0.0000000   0.1164988), wk =   0.0006859
        k(    4) = (   0.0000000   0.0000000   0.1747481), wk =   0.0006859
        k(    5) = (   0.0000000   0.0000000   0.2329975), wk =   0.0006859
        k(    6) = (   0.0000000   0.0000000   0.2912469), wk =   0.0006859
        k(    7) = (   0.0000000   0.0000000   0.3494963), wk =   0.0006859
        k(    8) = (   0.0000000   0.0000000   0.4077457), wk =   0.0006859
        k(    9) = (   0.0000000   0.0000000   0.4659950), wk =   0.0006859
        k(   10) = (   0.0000000   0.0000000  -0.5242444), wk =   0.0003429
        k(   11) = (   0.0000000   0.0555556   0.0000000), wk =   0.0013717
        k(   12) = (   0.0000000   0.0555556   0.0582494), wk =   0.0027435
        k(   13) = (   0.0000000   0.0555556   0.1164988), wk =   0.0027435
        k(   14) = (   0.0000000   0.0555556   0.1747481), wk =   0.0027435
        k(   15) = (   0.0000000   0.0555556   0.2329975), wk =   0.0027435
        k(   16) = (   0.0000000   0.0555556   0.2912469), wk =   0.0027435
        k(   17) = (   0.0000000   0.0555556   0.3494963), wk =   0.0027435
        k(   18) = (   0.0000000   0.0555556   0.4077457), wk =   0.0027435
        k(   19) = (   0.0000000   0.0555556   0.4659950), wk =   0.0027435
        k(   20) = (   0.0000000   0.0555556  -0.5242444), wk =   0.0013717
        k(   21) = (   0.0000000   0.1111111   0.0000000), wk =   0.0013717
        k(   22) = (   0.0000000   0.1111111   0.0582494), wk =   0.0027435
        k(   23) = (   0.0000000   0.1111111   0.1164988), wk =   0.0027435
        k(   24) = (   0.0000000   0.1111111   0.1747481), wk =   0.0027435
        k(   25) = (   0.0000000   0.1111111   0.2329975), wk =   0.0027435
        k(   26) = (   0.0000000   0.1111111   0.2912469), wk =   0.0027435
        k(   27) = (   0.0000000   0.1111111   0.3494963), wk =   0.0027435
        k(   28) = (   0.0000000   0.1111111   0.4077457), wk =   0.0027435
        k(   29) = (   0.0000000   0.1111111   0.4659950), wk =   0.0027435
        k(   30) = (   0.0000000   0.1111111  -0.5242444), wk =   0.0013717
        k(   31) = (   0.0000000   0.1666667   0.0000000), wk =   0.0013717
        k(   32) = (   0.0000000   0.1666667   0.0582494), wk =   0.0027435
        k(   33) = (   0.0000000   0.1666667   0.1164988), wk =   0.0027435
        k(   34) = (   0.0000000   0.1666667   0.1747481), wk =   0.0027435
        k(   35) = (   0.0000000   0.1666667   0.2329975), wk =   0.0027435
        k(   36) = (   0.0000000   0.1666667   0.2912469), wk =   0.0027435
        k(   37) = (   0.0000000   0.1666667   0.3494963), wk =   0.0027435
        k(   38) = (   0.0000000   0.1666667   0.4077457), wk =   0.0027435
        k(   39) = (   0.0000000   0.1666667   0.4659950), wk =   0.0027435
        k(   40) = (   0.0000000   0.1666667  -0.5242444), wk =   0.0013717
        k(   41) = (   0.0000000   0.2222222   0.0000000), wk =   0.0013717
        k(   42) = (   0.0000000   0.2222222   0.0582494), wk =   0.0027435
        k(   43) = (   0.0000000   0.2222222   0.1164988), wk =   0.0027435
        k(   44) = (   0.0000000   0.2222222   0.1747481), wk =   0.0027435
        k(   45) = (   0.0000000   0.2222222   0.2329975), wk =   0.0027435
        k(   46) = (   0.0000000   0.2222222   0.2912469), wk =   0.0027435
        k(   47) = (   0.0000000   0.2222222   0.3494963), wk =   0.0027435
        k(   48) = (   0.0000000   0.2222222   0.4077457), wk =   0.0027435
        k(   49) = (   0.0000000   0.2222222   0.4659950), wk =   0.0027435
        k(   50) = (   0.0000000   0.2222222  -0.5242444), wk =   0.0013717
        k(   51) = (   0.0000000   0.2777778   0.0000000), wk =   0.0013717
        k(   52) = (   0.0000000   0.2777778   0.0582494), wk =   0.0027435
        k(   53) = (   0.0000000   0.2777778   0.1164988), wk =   0.0027435
        k(   54) = (   0.0000000   0.2777778   0.1747481), wk =   0.0027435
        k(   55) = (   0.0000000   0.2777778   0.2329975), wk =   0.0027435
        k(   56) = (   0.0000000   0.2777778   0.2912469), wk =   0.0027435
        k(   57) = (   0.0000000   0.2777778   0.3494963), wk =   0.0027435
        k(   58) = (   0.0000000   0.2777778   0.4077457), wk =   0.0027435
        k(   59) = (   0.0000000   0.2777778   0.4659950), wk =   0.0027435
        k(   60) = (   0.0000000   0.2777778  -0.5242444), wk =   0.0013717
[...]
        k(  536) = (   0.4444444  -0.5000000   0.2912469), wk =   0.0027435
        k(  537) = (   0.4444444  -0.5000000   0.3494963), wk =   0.0027435
        k(  538) = (   0.4444444  -0.5000000   0.4077457), wk =   0.0027435
        k(  539) = (   0.4444444  -0.5000000   0.4659950), wk =   0.0027435
        k(  540) = (   0.4444444  -0.5000000  -0.5242444), wk =   0.0013717
        k(  541) = (  -0.5000000  -0.5000000   0.0000000), wk =   0.0003429
        k(  542) = (  -0.5000000  -0.5000000   0.0582494), wk =   0.0006859
        k(  543) = (  -0.5000000  -0.5000000   0.1164988), wk =   0.0006859
        k(  544) = (  -0.5000000  -0.5000000   0.1747481), wk =   0.0006859
        k(  545) = (  -0.5000000  -0.5000000   0.2329975), wk =   0.0006859
        k(  546) = (  -0.5000000  -0.5000000   0.2912469), wk =   0.0006859
        k(  547) = (  -0.5000000  -0.5000000   0.3494963), wk =   0.0006859
        k(  548) = (  -0.5000000  -0.5000000   0.4077457), wk =   0.0006859
        k(  549) = (  -0.5000000  -0.5000000   0.4659950), wk =   0.0006859
        k(  550) = (  -0.5000000  -0.5000000  -0.5242444), wk =   0.0003429

                       cryst. coord.
        k(    1) = (   0.0000000   0.0000000   0.0000000), wk =   0.0003429
        k(    2) = (   0.0000000   0.0000000   0.0555556), wk =   0.0006859
        k(    3) = (   0.0000000   0.0000000   0.1111111), wk =   0.0006859
        k(    4) = (   0.0000000   0.0000000   0.1666667), wk =   0.0006859
        k(    5) = (   0.0000000   0.0000000   0.2222222), wk =   0.0006859
        k(    6) = (   0.0000000   0.0000000   0.2777778), wk =   0.0006859
        k(    7) = (   0.0000000   0.0000000   0.3333333), wk =   0.0006859
        k(    8) = (   0.0000000   0.0000000   0.3888889), wk =   0.0006859
        k(    9) = (   0.0000000   0.0000000   0.4444444), wk =   0.0006859
        k(   10) = (   0.0000000   0.0000000  -0.5000000), wk =   0.0003429
        k(   11) = (   0.0000000   0.0555556   0.0000000), wk =   0.0013717
        k(   12) = (   0.0000000   0.0555556   0.0555556), wk =   0.0027435
        k(   13) = (   0.0000000   0.0555556   0.1111111), wk =   0.0027435
        k(   14) = (   0.0000000   0.0555556   0.1666667), wk =   0.0027435
        k(   15) = (   0.0000000   0.0555556   0.2222222), wk =   0.0027435
        k(   16) = (   0.0000000   0.0555556   0.2777778), wk =   0.0027435
        k(   17) = (   0.0000000   0.0555556   0.3333333), wk =   0.0027435
        k(   18) = (   0.0000000   0.0555556   0.3888889), wk =   0.0027435
        k(   19) = (   0.0000000   0.0555556   0.4444444), wk =   0.0027435
        k(   20) = (   0.0000000   0.0555556  -0.5000000), wk =   0.0013717
        k(   21) = (   0.0000000   0.1111111   0.0000000), wk =   0.0013717
        k(   22) = (   0.0000000   0.1111111   0.0555556), wk =   0.0027435
        k(   23) = (   0.0000000   0.1111111   0.1111111), wk =   0.0027435
        k(   24) = (   0.0000000   0.1111111   0.1666667), wk =   0.0027435
        k(   25) = (   0.0000000   0.1111111   0.2222222), wk =   0.0027435
        k(   26) = (   0.0000000   0.1111111   0.2777778), wk =   0.0027435
        k(   27) = (   0.0000000   0.1111111   0.3333333), wk =   0.0027435
        k(   28) = (   0.0000000   0.1111111   0.3888889), wk =   0.0027435
        k(   29) = (   0.0000000   0.1111111   0.4444444), wk =   0.0027435
        k(   30) = (   0.0000000   0.1111111  -0.5000000), wk =   0.0013717
        k(   31) = (   0.0000000   0.1666667   0.0000000), wk =   0.0013717
        k(   32) = (   0.0000000   0.1666667   0.0555556), wk =   0.0027435
        k(   33) = (   0.0000000   0.1666667   0.1111111), wk =   0.0027435
        k(   34) = (   0.0000000   0.1666667   0.1666667), wk =   0.0027435
        k(   35) = (   0.0000000   0.1666667   0.2222222), wk =   0.0027435
        k(   36) = (   0.0000000   0.1666667   0.2777778), wk =   0.0027435
        k(   37) = (   0.0000000   0.1666667   0.3333333), wk =   0.0027435
        k(   38) = (   0.0000000   0.1666667   0.3888889), wk =   0.0027435
        k(   39) = (   0.0000000   0.1666667   0.4444444), wk =   0.0027435
        k(   40) = (   0.0000000   0.1666667  -0.5000000), wk =   0.0013717
        k(   41) = (   0.0000000   0.2222222   0.0000000), wk =   0.0013717
        k(   42) = (   0.0000000   0.2222222   0.0555556), wk =   0.0027435
        k(   43) = (   0.0000000   0.2222222   0.1111111), wk =   0.0027435
        k(   44) = (   0.0000000   0.2222222   0.1666667), wk =   0.0027435
        k(   45) = (   0.0000000   0.2222222   0.2222222), wk =   0.0027435
        k(   46) = (   0.0000000   0.2222222   0.2777778), wk =   0.0027435
        k(   47) = (   0.0000000   0.2222222   0.3333333), wk =   0.0027435
        k(   48) = (   0.0000000   0.2222222   0.3888889), wk =   0.0027435
        k(   49) = (   0.0000000   0.2222222   0.4444444), wk =   0.0027435
        k(   50) = (   0.0000000   0.2222222  -0.5000000), wk =   0.0013717
        k(   51) = (   0.0000000   0.2777778   0.0000000), wk =   0.0013717
        k(   52) = (   0.0000000   0.2777778   0.0555556), wk =   0.0027435
        k(   53) = (   0.0000000   0.2777778   0.1111111), wk =   0.0027435
        k(   54) = (   0.0000000   0.2777778   0.1666667), wk =   0.0027435
        k(   55) = (   0.0000000   0.2777778   0.2222222), wk =   0.0027435
        k(   56) = (   0.0000000   0.2777778   0.2777778), wk =   0.0027435
        k(   57) = (   0.0000000   0.2777778   0.3333333), wk =   0.0027435
        k(   58) = (   0.0000000   0.2777778   0.3888889), wk =   0.0027435
        k(   59) = (   0.0000000   0.2777778   0.4444444), wk =   0.0027435
        k(   60) = (   0.0000000   0.2777778  -0.5000000), wk =   0.0013717
[...]
        k(  536) = (   0.4444444  -0.5000000   0.2777778), wk =   0.0027435
        k(  537) = (   0.4444444  -0.5000000   0.3333333), wk =   0.0027435
        k(  538) = (   0.4444444  -0.5000000   0.3888889), wk =   0.0027435
        k(  539) = (   0.4444444  -0.5000000   0.4444444), wk =   0.0027435
        k(  540) = (   0.4444444  -0.5000000  -0.5000000), wk =   0.0013717
        k(  541) = (  -0.5000000  -0.5000000   0.0000000), wk =   0.0003429
        k(  542) = (  -0.5000000  -0.5000000   0.0555556), wk =   0.0006859
        k(  543) = (  -0.5000000  -0.5000000   0.1111111), wk =   0.0006859
        k(  544) = (  -0.5000000  -0.5000000   0.1666667), wk =   0.0006859
        k(  545) = (  -0.5000000  -0.5000000   0.2222222), wk =   0.0006859
        k(  546) = (  -0.5000000  -0.5000000   0.2777778), wk =   0.0006859
        k(  547) = (  -0.5000000  -0.5000000   0.3333333), wk =   0.0006859
        k(  548) = (  -0.5000000  -0.5000000   0.3888889), wk =   0.0006859
        k(  549) = (  -0.5000000  -0.5000000   0.4444444), wk =   0.0006859
        k(  550) = (  -0.5000000  -0.5000000  -0.5000000), wk =   0.0003429

     Initial potential from superposition of free atoms

     starting charge   11.99014, renormalised to   12.00000
     Starting wfc are   16 randomized atomic wfcs

     Self-consistent Calculation

     iteration #  1     ecut=    25.00 Ry     beta= 0.70
     Davidson diagonalization with overlap
     ethr =  1.00E-02,  avg # of iterations =  3.2

     Threshold (ethr) on eigenvalues was too large:
     Diagonalizing with lowered threshold

     Davidson diagonalization with overlap
     ethr =  2.05E-04,  avg # of iterations =  2.3

     total energy              =     -26.82627335 Ry
     Harris-Foulkes estimate   =     -26.83410383 Ry
     estimated scf accuracy    <       0.02434874 Ry

[...]

     iteration #  4     ecut=    25.00 Ry     beta= 0.70
     Davidson diagonalization with overlap
     c_bands:  2 eigenvalues not converged
     ethr =  5.18E-08,  avg # of iterations =  3.3

     total energy              =     -26.82639564 Ry
     Harris-Foulkes estimate   =     -26.82639574 Ry
     estimated scf accuracy    <       0.00000015 Ry

     iteration #  5     ecut=    25.00 Ry     beta= 0.70
     Davidson diagonalization with overlap
     ethr =  1.29E-09,  avg # of iterations =  2.1

     End of self-consistent calculation

          k = 0.0000 0.0000 0.0000 (   891 PWs)   bands (ev):

    -3.0942   5.1179   5.1179   5.8528   6.4968   6.4968   7.4911  13.3709
    13.6277  13.6278

     occupation numbers
     1.0000   1.0000   1.0000   1.0000   1.0000   1.0000   1.0000   0.0000
     0.0000   0.0000

[...]

          k = 0.4444-0.5000-0.5242 (   908 PWs)   bands (ev):

[...]

          k =-0.5000-0.5000 0.0000 (   896 PWs)   bands (ev):

[...]

          k =-0.5000-0.5000-0.5242 (   920 PWs)   bands (ev):

     3.6037   3.6038   3.6038   3.6040   3.9897   3.9899   3.9899   3.9900
    19.6532  19.6534

     occupation numbers
     1.0000   1.0000   1.0000   1.0000   1.0000   1.0000   1.0000   1.0000
     0.0000   0.0000

     the Fermi energy is     8.4202 ev

!    total energy              =     -26.82639566 Ry
     Harris-Foulkes estimate   =     -26.82639567 Ry
     estimated scf accuracy    <       0.00000003 Ry

     The total energy is the sum of the following terms:

     one-electron contribution =      12.39018086 Ry
     hartree contribution      =       0.03479009 Ry
     xc contribution           =     -17.28246510 Ry
     ewald contribution        =     -21.96884514 Ry
     smearing contrib. (-TS)   =      -0.00005637 Ry

     convergence has been achieved in   5 iterations

     General routines

     Parallel routines

   This run was terminated on:  17:15:27  24Jan2019

   JOB DONE.