     Program PWSCF v.6.2 (svn rev. 14038) starts on 24Jan2019 at 17: 0:26

     Reading input from ./AlfccSEPNEG0DOT26206235367519437.in
Warning: card &IONS ignored
Warning: card / ignored
Warning: card &CELL ignored
Warning: card / ignored

     Current dimensions of program PWSCF are:
     Max number of different atomic species (ntypx) = 10
     Max number of k-points (npk) =  40000
     Max angular momentum in pseudopotentials (lmaxx) =  3
     Message from routine iosys:
     minimal I/O required, wf_collect reset to FALSE

     Subspace diagonalization in iterative solution of the eigenvalue problem:
     a serial algorithm will be used

     Found symmetry operation: I + ( -0.5000 -0.5000  0.0000)
     This is a supercell, fractional translations are disabled

     bravais-lattice index     =            0
     lattice parameter (alat)  =       7.6325  a.u.
     unit-cell volume          =     328.1068 (a.u.)^3
     number of atoms/cell      =            4
     number of atomic types    =            1
     number of electrons       =        12.00
     number of Kohn-Sham states=           10
     kinetic-energy cutoff     =      25.0000  Ry
     charge density cutoff     =     100.0000  Ry
     convergence threshold     =      1.0E-07
     mixing beta               =       0.7000
     number of iterations used =            8  plain     mixing
     Exchange-correlation      = SLA  PW   PBE  PBE ( 1  4  3  4 0 0)

     celldm(1)=   7.632472  celldm(2)=   0.000000  celldm(3)=   0.000000
     celldm(4)=   0.000000  celldm(5)=   0.000000  celldm(6)=   0.000000

     crystal axes: (cart. coord. in units of alat)
               a(1) = (   1.000000   0.000000   0.000000 )
               a(2) = (   0.000000   1.000000   0.000000 )
               a(3) = (   0.000000   0.000000   0.737938 )

     reciprocal axes: (cart. coord. in units 2 pi/alat)
               b(1) = (  1.000000  0.000000  0.000000 )
               b(2) = (  0.000000  1.000000  0.000000 )
               b(3) = (  0.000000  0.000000  1.355128 )

     PseudoPot. # 1 for Al read from file:
     ./al_pbe_v1.uspp.F.UPF
     MD5 check sum: 0a6289f5291fc8f409219462bc851e1f
     Pseudo is Ultrasoft + core correction, Zval =  3.0
     Generated by new atomic code, or converted to UPF format
     Using radial grid of  893 points,  3 beta functions with:
                l(1) =   0
                l(2) =   1
                l(3) =   2
     Q(r) pseudized with  8 coefficients,  rinner =    0.900   0.900   0.900
                                                       0.900   0.900

     atomic species   valence    mass     pseudopotential
        Al             3.00    26.98150     Al( 1.00)

     16 Sym. Ops., with inversion, found

                                    s                        frac. trans.

      isym =  1     identity

 cryst.   s( 1) = (     1          0          0      )
                  (     0          1          0      )
                  (     0          0          1      )

 cart.    s( 1) = (  1.0000000  0.0000000  0.0000000 )
                  (  0.0000000  1.0000000  0.0000000 )
                  (  0.0000000  0.0000000  1.0000000 )

      isym =  2     180 deg rotation - cart. axis [0,0,1]

[...]

      isym =  8      90 deg rotation - cart. axis [0,0,1]

[...]

      isym =  9     inversion

 cryst.   s( 9) = (    -1          0          0      )
                  (     0         -1          0      )
                  (     0          0         -1      )

 cart.    s( 9) = ( -1.0000000  0.0000000  0.0000000 )
                  (  0.0000000 -1.0000000  0.0000000 )
                  (  0.0000000  0.0000000 -1.0000000 )

      isym = 10     inv. 180 deg rotation - cart. axis [0,0,1]

 cryst.   s(10) = (     1          0          0      )
                  (     0          1          0      )
                  (     0          0         -1      )

 cart.    s(10) = (  1.0000000  0.0000000  0.0000000 )
                  (  0.0000000  1.0000000  0.0000000 )
                  (  0.0000000  0.0000000 -1.0000000 )

[...]

      isym = 16     inv.  90 deg rotation - cart. axis [0,0,1]

 cryst.   s(16) = (     0         -1          0      )
                  (     1          0          0      )
                  (     0          0         -1      )

 cart.    s(16) = (  0.0000000  1.0000000  0.0000000 )
                  ( -1.0000000  0.0000000  0.0000000 )
                  (  0.0000000  0.0000000 -1.0000000 )

   Cartesian axes

     site n.     atom                  positions (alat units)
         1           Al  tau(   1) = (   0.0000000   0.0000000   0.0000000  )
         2           Al  tau(   2) = (   0.5000000   0.5000000   0.0000000  )
         3           Al  tau(   3) = (   0.5000000   0.0000000   0.3689688  )
         4           Al  tau(   4) = (   0.0000000   0.5000000   0.3689688  )

   Crystallographic axes

     site n.     atom                  positions (cryst. coord.)
         1           Al  tau(   1) = (  0.0000000  0.0000000  0.0000000  )
         2           Al  tau(   2) = (  0.5000000  0.5000000  0.0000000  )
         3           Al  tau(   3) = (  0.5000000  0.0000000  0.5000000  )
         4           Al  tau(   4) = (  0.0000000  0.5000000  0.5000000  )

     number of k points=   715  Marzari-Vanderbilt smearing, width (Ry)=  0.0100
                       cart. coord. in units 2pi/alat
        k(    1) = (   0.0000000   0.0000000   0.0000000), wk =   0.0002572
        k(    2) = (   0.0000000   0.0000000   0.0564637), wk =   0.0005144
        k(    3) = (   0.0000000   0.0000000   0.1129274), wk =   0.0005144
        k(    4) = (   0.0000000   0.0000000   0.1693910), wk =   0.0005144
        k(    5) = (   0.0000000   0.0000000   0.2258547), wk =   0.0005144
        k(    6) = (   0.0000000   0.0000000   0.2823184), wk =   0.0005144
        k(    7) = (   0.0000000   0.0000000   0.3387821), wk =   0.0005144
        k(    8) = (   0.0000000   0.0000000   0.3952457), wk =   0.0005144
        k(    9) = (   0.0000000   0.0000000   0.4517094), wk =   0.0005144
        k(   10) = (   0.0000000   0.0000000   0.5081731), wk =   0.0005144
        k(   11) = (   0.0000000   0.0000000   0.5646368), wk =   0.0005144
        k(   12) = (   0.0000000   0.0000000   0.6211005), wk =   0.0005144
        k(   13) = (   0.0000000   0.0000000  -0.6775641), wk =   0.0002572
        k(   14) = (   0.0000000   0.0555556   0.0000000), wk =   0.0010288
        k(   15) = (   0.0000000   0.0555556   0.0564637), wk =   0.0020576
        k(   16) = (   0.0000000   0.0555556   0.1129274), wk =   0.0020576
        k(   17) = (   0.0000000   0.0555556   0.1693910), wk =   0.0020576
        k(   18) = (   0.0000000   0.0555556   0.2258547), wk =   0.0020576
        k(   19) = (   0.0000000   0.0555556   0.2823184), wk =   0.0020576
        k(   20) = (   0.0000000   0.0555556   0.3387821), wk =   0.0020576
        k(   21) = (   0.0000000   0.0555556   0.3952457), wk =   0.0020576
        k(   22) = (   0.0000000   0.0555556   0.4517094), wk =   0.0020576
        k(   23) = (   0.0000000   0.0555556   0.5081731), wk =   0.0020576
        k(   24) = (   0.0000000   0.0555556   0.5646368), wk =   0.0020576
        k(   25) = (   0.0000000   0.0555556   0.6211005), wk =   0.0020576
        k(   26) = (   0.0000000   0.0555556  -0.6775641), wk =   0.0010288
        k(   27) = (   0.0000000   0.1111111   0.0000000), wk =   0.0010288
        k(   28) = (   0.0000000   0.1111111   0.0564637), wk =   0.0020576
        k(   29) = (   0.0000000   0.1111111   0.1129274), wk =   0.0020576
        k(   30) = (   0.0000000   0.1111111   0.1693910), wk =   0.0020576
        k(   31) = (   0.0000000   0.1111111   0.2258547), wk =   0.0020576
        k(   32) = (   0.0000000   0.1111111   0.2823184), wk =   0.0020576
        k(   33) = (   0.0000000   0.1111111   0.3387821), wk =   0.0020576
        k(   34) = (   0.0000000   0.1111111   0.3952457), wk =   0.0020576
        k(   35) = (   0.0000000   0.1111111   0.4517094), wk =   0.0020576
        k(   36) = (   0.0000000   0.1111111   0.5081731), wk =   0.0020576
        k(   37) = (   0.0000000   0.1111111   0.5646368), wk =   0.0020576
        k(   38) = (   0.0000000   0.1111111   0.6211005), wk =   0.0020576
        k(   39) = (   0.0000000   0.1111111  -0.6775641), wk =   0.0010288
        k(   40) = (   0.0000000   0.1666667   0.0000000), wk =   0.0010288
        k(   41) = (   0.0000000   0.1666667   0.0564637), wk =   0.0020576
        k(   42) = (   0.0000000   0.1666667   0.1129274), wk =   0.0020576
        k(   43) = (   0.0000000   0.1666667   0.1693910), wk =   0.0020576
        k(   44) = (   0.0000000   0.1666667   0.2258547), wk =   0.0020576
        k(   45) = (   0.0000000   0.1666667   0.2823184), wk =   0.0020576
        k(   46) = (   0.0000000   0.1666667   0.3387821), wk =   0.0020576
        k(   47) = (   0.0000000   0.1666667   0.3952457), wk =   0.0020576
        k(   48) = (   0.0000000   0.1666667   0.4517094), wk =   0.0020576
        k(   49) = (   0.0000000   0.1666667   0.5081731), wk =   0.0020576
        k(   50) = (   0.0000000   0.1666667   0.5646368), wk =   0.0020576
        k(   51) = (   0.0000000   0.1666667   0.6211005), wk =   0.0020576
        k(   52) = (   0.0000000   0.1666667  -0.6775641), wk =   0.0010288
        k(   53) = (   0.0000000   0.2222222   0.0000000), wk =   0.0010288
        k(   54) = (   0.0000000   0.2222222   0.0564637), wk =   0.0020576
        k(   55) = (   0.0000000   0.2222222   0.1129274), wk =   0.0020576
        k(   56) = (   0.0000000   0.2222222   0.1693910), wk =   0.0020576
        k(   57) = (   0.0000000   0.2222222   0.2258547), wk =   0.0020576
        k(   58) = (   0.0000000   0.2222222   0.2823184), wk =   0.0020576
        k(   59) = (   0.0000000   0.2222222   0.3387821), wk =   0.0020576
        k(   60) = (   0.0000000   0.2222222   0.3952457), wk =   0.0020576
[...]
        k(  701) = (   0.4444444  -0.5000000   0.6211005), wk =   0.0020576
        k(  702) = (   0.4444444  -0.5000000  -0.6775641), wk =   0.0010288
        k(  703) = (  -0.5000000  -0.5000000   0.0000000), wk =   0.0002572
        k(  704) = (  -0.5000000  -0.5000000   0.0564637), wk =   0.0005144
        k(  705) = (  -0.5000000  -0.5000000   0.1129274), wk =   0.0005144
        k(  706) = (  -0.5000000  -0.5000000   0.1693910), wk =   0.0005144
        k(  707) = (  -0.5000000  -0.5000000   0.2258547), wk =   0.0005144
        k(  708) = (  -0.5000000  -0.5000000   0.2823184), wk =   0.0005144
        k(  709) = (  -0.5000000  -0.5000000   0.3387821), wk =   0.0005144
        k(  710) = (  -0.5000000  -0.5000000   0.3952457), wk =   0.0005144
        k(  711) = (  -0.5000000  -0.5000000   0.4517094), wk =   0.0005144
        k(  712) = (  -0.5000000  -0.5000000   0.5081731), wk =   0.0005144
        k(  713) = (  -0.5000000  -0.5000000   0.5646368), wk =   0.0005144
        k(  714) = (  -0.5000000  -0.5000000   0.6211005), wk =   0.0005144
        k(  715) = (  -0.5000000  -0.5000000  -0.6775641), wk =   0.0002572

                       cryst. coord.
        k(    1) = (   0.0000000   0.0000000   0.0000000), wk =   0.0002572
        k(    2) = (   0.0000000   0.0000000   0.0416667), wk =   0.0005144
        k(    3) = (   0.0000000   0.0000000   0.0833333), wk =   0.0005144
        k(    4) = (   0.0000000   0.0000000   0.1250000), wk =   0.0005144
        k(    5) = (   0.0000000   0.0000000   0.1666667), wk =   0.0005144
        k(    6) = (   0.0000000   0.0000000   0.2083333), wk =   0.0005144
        k(    7) = (   0.0000000   0.0000000   0.2500000), wk =   0.0005144
        k(    8) = (   0.0000000   0.0000000   0.2916667), wk =   0.0005144
        k(    9) = (   0.0000000   0.0000000   0.3333333), wk =   0.0005144
        k(   10) = (   0.0000000   0.0000000   0.3750000), wk =   0.0005144
        k(   11) = (   0.0000000   0.0000000   0.4166667), wk =   0.0005144
        k(   12) = (   0.0000000   0.0000000   0.4583333), wk =   0.0005144
        k(   13) = (   0.0000000   0.0000000  -0.5000000), wk =   0.0002572
        k(   14) = (   0.0000000   0.0555556   0.0000000), wk =   0.0010288
        k(   15) = (   0.0000000   0.0555556   0.0416667), wk =   0.0020576
        k(   16) = (   0.0000000   0.0555556   0.0833333), wk =   0.0020576
        k(   17) = (   0.0000000   0.0555556   0.1250000), wk =   0.0020576
        k(   18) = (   0.0000000   0.0555556   0.1666667), wk =   0.0020576
        k(   19) = (   0.0000000   0.0555556   0.2083333), wk =   0.0020576
        k(   20) = (   0.0000000   0.0555556   0.2500000), wk =   0.0020576
        k(   21) = (   0.0000000   0.0555556   0.2916667), wk =   0.0020576
        k(   22) = (   0.0000000   0.0555556   0.3333333), wk =   0.0020576
        k(   23) = (   0.0000000   0.0555556   0.3750000), wk =   0.0020576
        k(   24) = (   0.0000000   0.0555556   0.4166667), wk =   0.0020576
        k(   25) = (   0.0000000   0.0555556   0.4583333), wk =   0.0020576
        k(   26) = (   0.0000000   0.0555556  -0.5000000), wk =   0.0010288
        k(   27) = (   0.0000000   0.1111111   0.0000000), wk =   0.0010288
        k(   28) = (   0.0000000   0.1111111   0.0416667), wk =   0.0020576
        k(   29) = (   0.0000000   0.1111111   0.0833333), wk =   0.0020576
        k(   30) = (   0.0000000   0.1111111   0.1250000), wk =   0.0020576
        k(   31) = (   0.0000000   0.1111111   0.1666667), wk =   0.0020576
        k(   32) = (   0.0000000   0.1111111   0.2083333), wk =   0.0020576
        k(   33) = (   0.0000000   0.1111111   0.2500000), wk =   0.0020576
        k(   34) = (   0.0000000   0.1111111   0.2916667), wk =   0.0020576
        k(   35) = (   0.0000000   0.1111111   0.3333333), wk =   0.0020576
        k(   36) = (   0.0000000   0.1111111   0.3750000), wk =   0.0020576
        k(   37) = (   0.0000000   0.1111111   0.4166667), wk =   0.0020576
        k(   38) = (   0.0000000   0.1111111   0.4583333), wk =   0.0020576
        k(   39) = (   0.0000000   0.1111111  -0.5000000), wk =   0.0010288
        k(   40) = (   0.0000000   0.1666667   0.0000000), wk =   0.0010288
        k(   41) = (   0.0000000   0.1666667   0.0416667), wk =   0.0020576
        k(   42) = (   0.0000000   0.1666667   0.0833333), wk =   0.0020576
        k(   43) = (   0.0000000   0.1666667   0.1250000), wk =   0.0020576
        k(   44) = (   0.0000000   0.1666667   0.1666667), wk =   0.0020576
        k(   45) = (   0.0000000   0.1666667   0.2083333), wk =   0.0020576
        k(   46) = (   0.0000000   0.1666667   0.2500000), wk =   0.0020576
        k(   47) = (   0.0000000   0.1666667   0.2916667), wk =   0.0020576
        k(   48) = (   0.0000000   0.1666667   0.3333333), wk =   0.0020576
        k(   49) = (   0.0000000   0.1666667   0.3750000), wk =   0.0020576
        k(   50) = (   0.0000000   0.1666667   0.4166667), wk =   0.0020576
        k(   51) = (   0.0000000   0.1666667   0.4583333), wk =   0.0020576
        k(   52) = (   0.0000000   0.1666667  -0.5000000), wk =   0.0010288
        k(   53) = (   0.0000000   0.2222222   0.0000000), wk =   0.0010288
        k(   54) = (   0.0000000   0.2222222   0.0416667), wk =   0.0020576
        k(   55) = (   0.0000000   0.2222222   0.0833333), wk =   0.0020576
        k(   56) = (   0.0000000   0.2222222   0.1250000), wk =   0.0020576
        k(   57) = (   0.0000000   0.2222222   0.1666667), wk =   0.0020576
        k(   58) = (   0.0000000   0.2222222   0.2083333), wk =   0.0020576
        k(   59) = (   0.0000000   0.2222222   0.2500000), wk =   0.0020576
        k(   60) = (   0.0000000   0.2222222   0.2916667), wk =   0.0020576
[...]
        k(  701) = (   0.4444444  -0.5000000   0.4583333), wk =   0.0020576
        k(  702) = (   0.4444444  -0.5000000  -0.5000000), wk =   0.0010288
        k(  703) = (  -0.5000000  -0.5000000   0.0000000), wk =   0.0002572
        k(  704) = (  -0.5000000  -0.5000000   0.0416667), wk =   0.0005144
        k(  705) = (  -0.5000000  -0.5000000   0.0833333), wk =   0.0005144
        k(  706) = (  -0.5000000  -0.5000000   0.1250000), wk =   0.0005144
        k(  707) = (  -0.5000000  -0.5000000   0.1666667), wk =   0.0005144
        k(  708) = (  -0.5000000  -0.5000000   0.2083333), wk =   0.0005144
        k(  709) = (  -0.5000000  -0.5000000   0.2500000), wk =   0.0005144
        k(  710) = (  -0.5000000  -0.5000000   0.2916667), wk =   0.0005144
        k(  711) = (  -0.5000000  -0.5000000   0.3333333), wk =   0.0005144
        k(  712) = (  -0.5000000  -0.5000000   0.3750000), wk =   0.0005144
        k(  713) = (  -0.5000000  -0.5000000   0.4166667), wk =   0.0005144
        k(  714) = (  -0.5000000  -0.5000000   0.4583333), wk =   0.0005144
        k(  715) = (  -0.5000000  -0.5000000  -0.5000000), wk =   0.0002572

     Initial potential from superposition of free atoms

     starting charge   11.99014, renormalised to   12.00000
     Starting wfc are   16 randomized atomic wfcs

     Self-consistent Calculation

     iteration #  1     ecut=    25.00 Ry     beta= 0.70
     Davidson diagonalization with overlap
     ethr =  1.00E-02,  avg # of iterations =  3.5

     Threshold (ethr) on eigenvalues was too large:
     Diagonalizing with lowered threshold

     Davidson diagonalization with overlap
     ethr =  2.15E-04,  avg # of iterations =  1.7

     total energy              =     -26.65106578 Ry
     Harris-Foulkes estimate   =     -26.66077655 Ry
     estimated scf accuracy    <       0.02587104 Ry

[...]

     iteration #  3     ecut=    25.00 Ry     beta= 0.70
     Davidson diagonalization with overlap
     c_bands:  1 eigenvalues not converged
     ethr =  1.34E-05,  avg # of iterations =  1.8

[...]

     total energy              =     -26.65108289 Ry
     Harris-Foulkes estimate   =     -26.65108297 Ry
     estimated scf accuracy    <       0.00000024 Ry

     iteration #  5     ecut=    25.00 Ry     beta= 0.70
     Davidson diagonalization with overlap
     ethr =  2.04E-09,  avg # of iterations =  2.0

     End of self-consistent calculation

          k = 0.0000 0.0000 0.0000 (   705 PWs)   bands (ev):

    -2.0299   6.0783   6.0783   7.5128   7.5128  12.9899  13.6119  14.2605
    14.4777  14.4777

     occupation numbers
     1.0000   1.0000   1.0000   1.0000   1.0000   0.0000   0.0000   0.0000
     0.0000   0.0000

[...]

          k = 0.4444-0.5000-0.6776 (   700 PWs)   bands (ev):

[...]

          k =-0.5000-0.5000 0.0000 (   688 PWs)   bands (ev):

[...]

          k =-0.5000-0.5000-0.6776 (   696 PWs)   bands (ev):

     5.7988   5.7988   5.7988   5.7989   7.0772   7.0774   7.0774   7.0777
    20.9152  20.9153

     occupation numbers
     1.0000   1.0000   1.0000   1.0000   1.0000   1.0000   1.0000   1.0000
     0.0000   0.0000

     the Fermi energy is    11.4886 ev

!    total energy              =     -26.65108288 Ry
     Harris-Foulkes estimate   =     -26.65108292 Ry
     estimated scf accuracy    <       0.00000007 Ry

     The total energy is the sum of the following terms:

     one-electron contribution =      15.13615362 Ry
     hartree contribution      =       0.05158899 Ry
     xc contribution           =     -17.90720773 Ry
     ewald contribution        =     -23.93165244 Ry
     smearing contrib. (-TS)   =       0.00003468 Ry

     convergence has been achieved in   5 iterations

     General routines

     Parallel routines

   This run was terminated on:  17:14:52  24Jan2019

   JOB DONE.