     Program PWSCF v.6.2 (svn rev. 14038) starts on 24Jan2019 at 17:28:19

     Reading input from ./AlfccSEPNEG0DOT07707716284564542.in
Warning: card &IONS ignored
Warning: card / ignored
Warning: card &CELL ignored
Warning: card / ignored

     Current dimensions of program PWSCF are:
     Max number of different atomic species (ntypx) = 10
     Max number of k-points (npk) =  40000
     Max angular momentum in pseudopotentials (lmaxx) =  3
     Message from routine iosys:
     minimal I/O required, wf_collect reset to FALSE

     Subspace diagonalization in iterative solution of the eigenvalue problem:
     a serial algorithm will be used

     Found symmetry operation: I + ( -0.5000 -0.5000  0.0000)
     This is a supercell, fractional translations are disabled

     bravais-lattice index     =            0
     lattice parameter (alat)  =       7.6325  a.u.
     unit-cell volume          =     410.3561 (a.u.)^3
     number of atoms/cell      =            4
     number of atomic types    =            1
     number of electrons       =        12.00
     number of Kohn-Sham states=           10
     kinetic-energy cutoff     =      25.0000  Ry
     charge density cutoff     =     100.0000  Ry
     convergence threshold     =      1.0E-07
     mixing beta               =       0.7000
     number of iterations used =            8  plain     mixing
     Exchange-correlation      = SLA  PW   PBE  PBE ( 1  4  3  4 0 0)

     celldm(1)=   7.632472  celldm(2)=   0.000000  celldm(3)=   0.000000
     celldm(4)=   0.000000  celldm(5)=   0.000000  celldm(6)=   0.000000

     crystal axes: (cart. coord. in units of alat)
               a(1) = (   1.000000   0.000000   0.000000 )
               a(2) = (   0.000000   1.000000   0.000000 )
               a(3) = (   0.000000   0.000000   0.922923 )

     reciprocal axes: (cart. coord. in units 2 pi/alat)
               b(1) = (  1.000000  0.000000  0.000000 )
               b(2) = (  0.000000  1.000000  0.000000 )
               b(3) = (  0.000000  0.000000  1.083514 )

     PseudoPot. # 1 for Al read from file:
     ./al_pbe_v1.uspp.F.UPF
     MD5 check sum: 0a6289f5291fc8f409219462bc851e1f
     Pseudo is Ultrasoft + core correction, Zval =  3.0
     Generated by new atomic code, or converted to UPF format
     Using radial grid of  893 points,  3 beta functions with:
                l(1) =   0
                l(2) =   1
                l(3) =   2
     Q(r) pseudized with  8 coefficients,  rinner =    0.900   0.900   0.900
                                                       0.900   0.900

     atomic species   valence    mass     pseudopotential
        Al             3.00    26.98150     Al( 1.00)

     16 Sym. Ops., with inversion, found

                                    s                        frac. trans.

      isym =  1     identity

 cryst.   s( 1) = (     1          0          0      )
                  (     0          1          0      )
                  (     0          0          1      )

 cart.    s( 1) = (  1.0000000  0.0000000  0.0000000 )
                  (  0.0000000  1.0000000  0.0000000 )
                  (  0.0000000  0.0000000  1.0000000 )

      isym =  2     180 deg rotation - cart. axis [0,0,1]

[...]

      isym =  8      90 deg rotation - cart. axis [0,0,1]

[...]

      isym =  9     inversion

 cryst.   s( 9) = (    -1          0          0      )
                  (     0         -1          0      )
                  (     0          0         -1      )

 cart.    s( 9) = ( -1.0000000  0.0000000  0.0000000 )
                  (  0.0000000 -1.0000000  0.0000000 )
                  (  0.0000000  0.0000000 -1.0000000 )

      isym = 10     inv. 180 deg rotation - cart. axis [0,0,1]

 cryst.   s(10) = (     1          0          0      )
                  (     0          1          0      )
                  (     0          0         -1      )

 cart.    s(10) = (  1.0000000  0.0000000  0.0000000 )
                  (  0.0000000  1.0000000  0.0000000 )
                  (  0.0000000  0.0000000 -1.0000000 )

[...]

      isym = 16     inv.  90 deg rotation - cart. axis [0,0,1]

 cryst.   s(16) = (     0         -1          0      )
                  (     1          0          0      )
                  (     0          0         -1      )

 cart.    s(16) = (  0.0000000  1.0000000  0.0000000 )
                  ( -1.0000000  0.0000000  0.0000000 )
                  (  0.0000000  0.0000000 -1.0000000 )

   Cartesian axes

     site n.     atom                  positions (alat units)
         1           Al  tau(   1) = (   0.0000000   0.0000000   0.0000000  )
         2           Al  tau(   2) = (   0.5000000   0.5000000   0.0000000  )
         3           Al  tau(   3) = (   0.5000000   0.0000000   0.4614613  )
         4           Al  tau(   4) = (   0.0000000   0.5000000   0.4614613  )

   Crystallographic axes

     site n.     atom                  positions (cryst. coord.)
         1           Al  tau(   1) = (  0.0000000  0.0000000  0.0000000  )
         2           Al  tau(   2) = (  0.5000000  0.5000000  0.0000000  )
         3           Al  tau(   3) = (  0.5000000  0.0000000  0.5000000  )
         4           Al  tau(   4) = (  0.0000000  0.5000000  0.5000000  )

     number of k points=   550  Marzari-Vanderbilt smearing, width (Ry)=  0.0100
                       cart. coord. in units 2pi/alat
        k(    1) = (   0.0000000   0.0000000   0.0000000), wk =   0.0003249
        k(    2) = (   0.0000000   0.0000000   0.0570271), wk =   0.0006498
        k(    3) = (   0.0000000   0.0000000   0.1140541), wk =   0.0006498
        k(    4) = (   0.0000000   0.0000000   0.1710812), wk =   0.0006498
        k(    5) = (   0.0000000   0.0000000   0.2281083), wk =   0.0006498
        k(    6) = (   0.0000000   0.0000000   0.2851354), wk =   0.0006498
        k(    7) = (   0.0000000   0.0000000   0.3421624), wk =   0.0006498
        k(    8) = (   0.0000000   0.0000000   0.3991895), wk =   0.0006498
        k(    9) = (   0.0000000   0.0000000   0.4562166), wk =   0.0006498
        k(   10) = (   0.0000000   0.0000000   0.5132437), wk =   0.0006498
        k(   11) = (   0.0000000   0.0555556   0.0000000), wk =   0.0012995
        k(   12) = (   0.0000000   0.0555556   0.0570271), wk =   0.0025991
        k(   13) = (   0.0000000   0.0555556   0.1140541), wk =   0.0025991
        k(   14) = (   0.0000000   0.0555556   0.1710812), wk =   0.0025991
        k(   15) = (   0.0000000   0.0555556   0.2281083), wk =   0.0025991
        k(   16) = (   0.0000000   0.0555556   0.2851354), wk =   0.0025991
        k(   17) = (   0.0000000   0.0555556   0.3421624), wk =   0.0025991
        k(   18) = (   0.0000000   0.0555556   0.3991895), wk =   0.0025991
        k(   19) = (   0.0000000   0.0555556   0.4562166), wk =   0.0025991
        k(   20) = (   0.0000000   0.0555556   0.5132437), wk =   0.0025991
        k(   21) = (   0.0000000   0.1111111   0.0000000), wk =   0.0012995
        k(   22) = (   0.0000000   0.1111111   0.0570271), wk =   0.0025991
        k(   23) = (   0.0000000   0.1111111   0.1140541), wk =   0.0025991
        k(   24) = (   0.0000000   0.1111111   0.1710812), wk =   0.0025991
        k(   25) = (   0.0000000   0.1111111   0.2281083), wk =   0.0025991
        k(   26) = (   0.0000000   0.1111111   0.2851354), wk =   0.0025991
        k(   27) = (   0.0000000   0.1111111   0.3421624), wk =   0.0025991
        k(   28) = (   0.0000000   0.1111111   0.3991895), wk =   0.0025991
        k(   29) = (   0.0000000   0.1111111   0.4562166), wk =   0.0025991
        k(   30) = (   0.0000000   0.1111111   0.5132437), wk =   0.0025991
        k(   31) = (   0.0000000   0.1666667   0.0000000), wk =   0.0012995
        k(   32) = (   0.0000000   0.1666667   0.0570271), wk =   0.0025991
        k(   33) = (   0.0000000   0.1666667   0.1140541), wk =   0.0025991
        k(   34) = (   0.0000000   0.1666667   0.1710812), wk =   0.0025991
        k(   35) = (   0.0000000   0.1666667   0.2281083), wk =   0.0025991
        k(   36) = (   0.0000000   0.1666667   0.2851354), wk =   0.0025991
        k(   37) = (   0.0000000   0.1666667   0.3421624), wk =   0.0025991
        k(   38) = (   0.0000000   0.1666667   0.3991895), wk =   0.0025991
        k(   39) = (   0.0000000   0.1666667   0.4562166), wk =   0.0025991
        k(   40) = (   0.0000000   0.1666667   0.5132437), wk =   0.0025991
        k(   41) = (   0.0000000   0.2222222   0.0000000), wk =   0.0012995
        k(   42) = (   0.0000000   0.2222222   0.0570271), wk =   0.0025991
        k(   43) = (   0.0000000   0.2222222   0.1140541), wk =   0.0025991
        k(   44) = (   0.0000000   0.2222222   0.1710812), wk =   0.0025991
        k(   45) = (   0.0000000   0.2222222   0.2281083), wk =   0.0025991
        k(   46) = (   0.0000000   0.2222222   0.2851354), wk =   0.0025991
        k(   47) = (   0.0000000   0.2222222   0.3421624), wk =   0.0025991
        k(   48) = (   0.0000000   0.2222222   0.3991895), wk =   0.0025991
        k(   49) = (   0.0000000   0.2222222   0.4562166), wk =   0.0025991
        k(   50) = (   0.0000000   0.2222222   0.5132437), wk =   0.0025991
        k(   51) = (   0.0000000   0.2777778   0.0000000), wk =   0.0012995
        k(   52) = (   0.0000000   0.2777778   0.0570271), wk =   0.0025991
        k(   53) = (   0.0000000   0.2777778   0.1140541), wk =   0.0025991
        k(   54) = (   0.0000000   0.2777778   0.1710812), wk =   0.0025991
        k(   55) = (   0.0000000   0.2777778   0.2281083), wk =   0.0025991
        k(   56) = (   0.0000000   0.2777778   0.2851354), wk =   0.0025991
        k(   57) = (   0.0000000   0.2777778   0.3421624), wk =   0.0025991
        k(   58) = (   0.0000000   0.2777778   0.3991895), wk =   0.0025991
        k(   59) = (   0.0000000   0.2777778   0.4562166), wk =   0.0025991
        k(   60) = (   0.0000000   0.2777778   0.5132437), wk =   0.0025991
[...]
        k(  536) = (   0.4444444  -0.5000000   0.2851354), wk =   0.0025991
        k(  537) = (   0.4444444  -0.5000000   0.3421624), wk =   0.0025991
        k(  538) = (   0.4444444  -0.5000000   0.3991895), wk =   0.0025991
        k(  539) = (   0.4444444  -0.5000000   0.4562166), wk =   0.0025991
        k(  540) = (   0.4444444  -0.5000000   0.5132437), wk =   0.0025991
        k(  541) = (  -0.5000000  -0.5000000   0.0000000), wk =   0.0003249
        k(  542) = (  -0.5000000  -0.5000000   0.0570271), wk =   0.0006498
        k(  543) = (  -0.5000000  -0.5000000   0.1140541), wk =   0.0006498
        k(  544) = (  -0.5000000  -0.5000000   0.1710812), wk =   0.0006498
        k(  545) = (  -0.5000000  -0.5000000   0.2281083), wk =   0.0006498
        k(  546) = (  -0.5000000  -0.5000000   0.2851354), wk =   0.0006498
        k(  547) = (  -0.5000000  -0.5000000   0.3421624), wk =   0.0006498
        k(  548) = (  -0.5000000  -0.5000000   0.3991895), wk =   0.0006498
        k(  549) = (  -0.5000000  -0.5000000   0.4562166), wk =   0.0006498
        k(  550) = (  -0.5000000  -0.5000000   0.5132437), wk =   0.0006498

                       cryst. coord.
        k(    1) = (   0.0000000   0.0000000   0.0000000), wk =   0.0003249
        k(    2) = (   0.0000000   0.0000000   0.0526316), wk =   0.0006498
        k(    3) = (   0.0000000   0.0000000   0.1052632), wk =   0.0006498
        k(    4) = (   0.0000000   0.0000000   0.1578947), wk =   0.0006498
        k(    5) = (   0.0000000   0.0000000   0.2105263), wk =   0.0006498
        k(    6) = (   0.0000000   0.0000000   0.2631579), wk =   0.0006498
        k(    7) = (   0.0000000   0.0000000   0.3157895), wk =   0.0006498
        k(    8) = (   0.0000000   0.0000000   0.3684211), wk =   0.0006498
        k(    9) = (   0.0000000   0.0000000   0.4210526), wk =   0.0006498
        k(   10) = (   0.0000000   0.0000000   0.4736842), wk =   0.0006498
        k(   11) = (   0.0000000   0.0555556   0.0000000), wk =   0.0012995
        k(   12) = (   0.0000000   0.0555556   0.0526316), wk =   0.0025991
        k(   13) = (   0.0000000   0.0555556   0.1052632), wk =   0.0025991
        k(   14) = (   0.0000000   0.0555556   0.1578947), wk =   0.0025991
        k(   15) = (   0.0000000   0.0555556   0.2105263), wk =   0.0025991
        k(   16) = (   0.0000000   0.0555556   0.2631579), wk =   0.0025991
        k(   17) = (   0.0000000   0.0555556   0.3157895), wk =   0.0025991
        k(   18) = (   0.0000000   0.0555556   0.3684211), wk =   0.0025991
        k(   19) = (   0.0000000   0.0555556   0.4210526), wk =   0.0025991
        k(   20) = (   0.0000000   0.0555556   0.4736842), wk =   0.0025991
        k(   21) = (   0.0000000   0.1111111   0.0000000), wk =   0.0012995
        k(   22) = (   0.0000000   0.1111111   0.0526316), wk =   0.0025991
        k(   23) = (   0.0000000   0.1111111   0.1052632), wk =   0.0025991
        k(   24) = (   0.0000000   0.1111111   0.1578947), wk =   0.0025991
        k(   25) = (   0.0000000   0.1111111   0.2105263), wk =   0.0025991
        k(   26) = (   0.0000000   0.1111111   0.2631579), wk =   0.0025991
        k(   27) = (   0.0000000   0.1111111   0.3157895), wk =   0.0025991
        k(   28) = (   0.0000000   0.1111111   0.3684211), wk =   0.0025991
        k(   29) = (   0.0000000   0.1111111   0.4210526), wk =   0.0025991
        k(   30) = (   0.0000000   0.1111111   0.4736842), wk =   0.0025991
        k(   31) = (   0.0000000   0.1666667   0.0000000), wk =   0.0012995
        k(   32) = (   0.0000000   0.1666667   0.0526316), wk =   0.0025991
        k(   33) = (   0.0000000   0.1666667   0.1052632), wk =   0.0025991
        k(   34) = (   0.0000000   0.1666667   0.1578947), wk =   0.0025991
        k(   35) = (   0.0000000   0.1666667   0.2105263), wk =   0.0025991
        k(   36) = (   0.0000000   0.1666667   0.2631579), wk =   0.0025991
        k(   37) = (   0.0000000   0.1666667   0.3157895), wk =   0.0025991
        k(   38) = (   0.0000000   0.1666667   0.3684211), wk =   0.0025991
        k(   39) = (   0.0000000   0.1666667   0.4210526), wk =   0.0025991
        k(   40) = (   0.0000000   0.1666667   0.4736842), wk =   0.0025991
        k(   41) = (   0.0000000   0.2222222   0.0000000), wk =   0.0012995
        k(   42) = (   0.0000000   0.2222222   0.0526316), wk =   0.0025991
        k(   43) = (   0.0000000   0.2222222   0.1052632), wk =   0.0025991
        k(   44) = (   0.0000000   0.2222222   0.1578947), wk =   0.0025991
        k(   45) = (   0.0000000   0.2222222   0.2105263), wk =   0.0025991
        k(   46) = (   0.0000000   0.2222222   0.2631579), wk =   0.0025991
        k(   47) = (   0.0000000   0.2222222   0.3157895), wk =   0.0025991
        k(   48) = (   0.0000000   0.2222222   0.3684211), wk =   0.0025991
        k(   49) = (   0.0000000   0.2222222   0.4210526), wk =   0.0025991
        k(   50) = (   0.0000000   0.2222222   0.4736842), wk =   0.0025991
        k(   51) = (   0.0000000   0.2777778   0.0000000), wk =   0.0012995
        k(   52) = (   0.0000000   0.2777778   0.0526316), wk =   0.0025991
        k(   53) = (   0.0000000   0.2777778   0.1052632), wk =   0.0025991
        k(   54) = (   0.0000000   0.2777778   0.1578947), wk =   0.0025991
        k(   55) = (   0.0000000   0.2777778   0.2105263), wk =   0.0025991
        k(   56) = (   0.0000000   0.2777778   0.2631579), wk =   0.0025991
        k(   57) = (   0.0000000   0.2777778   0.3157895), wk =   0.0025991
        k(   58) = (   0.0000000   0.2777778   0.3684211), wk =   0.0025991
        k(   59) = (   0.0000000   0.2777778   0.4210526), wk =   0.0025991
        k(   60) = (   0.0000000   0.2777778   0.4736842), wk =   0.0025991
[...]
        k(  536) = (   0.4444444  -0.5000000   0.2631579), wk =   0.0025991
        k(  537) = (   0.4444444  -0.5000000   0.3157895), wk =   0.0025991
        k(  538) = (   0.4444444  -0.5000000   0.3684211), wk =   0.0025991
        k(  539) = (   0.4444444  -0.5000000   0.4210526), wk =   0.0025991
        k(  540) = (   0.4444444  -0.5000000   0.4736842), wk =   0.0025991
        k(  541) = (  -0.5000000  -0.5000000   0.0000000), wk =   0.0003249
        k(  542) = (  -0.5000000  -0.5000000   0.0526316), wk =   0.0006498
        k(  543) = (  -0.5000000  -0.5000000   0.1052632), wk =   0.0006498
        k(  544) = (  -0.5000000  -0.5000000   0.1578947), wk =   0.0006498
        k(  545) = (  -0.5000000  -0.5000000   0.2105263), wk =   0.0006498
        k(  546) = (  -0.5000000  -0.5000000   0.2631579), wk =   0.0006498
        k(  547) = (  -0.5000000  -0.5000000   0.3157895), wk =   0.0006498
        k(  548) = (  -0.5000000  -0.5000000   0.3684211), wk =   0.0006498
        k(  549) = (  -0.5000000  -0.5000000   0.4210526), wk =   0.0006498
        k(  550) = (  -0.5000000  -0.5000000   0.4736842), wk =   0.0006498

     Initial potential from superposition of free atoms

     starting charge   11.99014, renormalised to   12.00000
     Starting wfc are   16 randomized atomic wfcs

     Self-consistent Calculation

     iteration #  1     ecut=    25.00 Ry     beta= 0.70
     Davidson diagonalization with overlap
     ethr =  1.00E-02,  avg # of iterations =  3.2

     Threshold (ethr) on eigenvalues was too large:
     Diagonalizing with lowered threshold

     Davidson diagonalization with overlap
     ethr =  2.02E-04,  avg # of iterations =  2.3

     total energy              =     -26.81810816 Ry
     Harris-Foulkes estimate   =     -26.82592326 Ry
     estimated scf accuracy    <       0.02404213 Ry

[...]

     total energy              =     -26.81821634 Ry
     Harris-Foulkes estimate   =     -26.81821643 Ry
     estimated scf accuracy    <       0.00000017 Ry

     iteration #  5     ecut=    25.00 Ry     beta= 0.70
     Davidson diagonalization with overlap
     ethr =  1.44E-09,  avg # of iterations =  2.1

     End of self-consistent calculation

          k = 0.0000 0.0000 0.0000 (   875 PWs)   bands (ev):

    -2.9760   5.2244   5.2244   6.5331   6.6120   6.6121   8.3091  13.4737
    13.7227  13.7227

     occupation numbers
     1.0000   1.0000   1.0000   1.0000   1.0000   1.0000   1.0002   0.0000
     0.0000   0.0000

[...]

          k = 0.4444-0.5000 0.5132 (   870 PWs)   bands (ev):

[...]

          k =-0.5000-0.5000 0.0000 (   848 PWs)   bands (ev):

[...]

          k =-0.5000-0.5000 0.5132 (   880 PWs)   bands (ev):

     3.7207   3.7208   3.7208   3.7209   4.4441   4.4442   4.4442   4.4443
    19.5791  19.5794

     occupation numbers
     1.0000   1.0000   1.0000   1.0000   1.0000   1.0000   1.0000   1.0000
     0.0000   0.0000

     the Fermi energy is     8.7722 ev

!    total energy              =     -26.81821634 Ry
     Harris-Foulkes estimate   =     -26.81821636 Ry
     estimated scf accuracy    <       0.00000004 Ry

     The total energy is the sum of the following terms:

     one-electron contribution =      12.71371181 Ry
     hartree contribution      =       0.03589195 Ry
     xc contribution           =     -17.35775340 Ry
     ewald contribution        =     -22.21011142 Ry
     smearing contrib. (-TS)   =       0.00004472 Ry

     convergence has been achieved in   5 iterations

     General routines

     Parallel routines

   This run was terminated on:  17:29:23  24Jan2019

   JOB DONE.