     Program PWSCF v.6.2 (svn rev. 14038) starts on 24Jan2019 at 17: 1:48

     Reading input from ./AlfccSEPNEG0DOT18498519082954898.in
Warning: card &IONS ignored
Warning: card / ignored
Warning: card &CELL ignored
Warning: card / ignored

     Current dimensions of program PWSCF are:
     Max number of different atomic species (ntypx) = 10
     Max number of k-points (npk) =  40000
     Max angular momentum in pseudopotentials (lmaxx) =  3
     Message from routine iosys:
     minimal I/O required, wf_collect reset to FALSE

     Subspace diagonalization in iterative solution of the eigenvalue problem:
     a serial algorithm will be used

     Found symmetry operation: I + ( -0.5000 -0.5000  0.0000)
     This is a supercell, fractional translations are disabled

     bravais-lattice index     =            0
     lattice parameter (alat)  =       7.6325  a.u.
     unit-cell volume          =     362.3773 (a.u.)^3
     number of atoms/cell      =            4
     number of atomic types    =            1
     number of electrons       =        12.00
     number of Kohn-Sham states=           10
     kinetic-energy cutoff     =      25.0000  Ry
     charge density cutoff     =     100.0000  Ry
     convergence threshold     =      1.0E-07
     mixing beta               =       0.7000
     number of iterations used =            8  plain     mixing
     Exchange-correlation      = SLA  PW   PBE  PBE ( 1  4  3  4 0 0)

     celldm(1)=   7.632472  celldm(2)=   0.000000  celldm(3)=   0.000000
     celldm(4)=   0.000000  celldm(5)=   0.000000  celldm(6)=   0.000000

     crystal axes: (cart. coord. in units of alat)
               a(1) = (   1.000000   0.000000   0.000000 )
               a(2) = (   0.000000   1.000000   0.000000 )
               a(3) = (   0.000000   0.000000   0.815015 )

     reciprocal axes: (cart. coord. in units 2 pi/alat)
               b(1) = (  1.000000  0.000000  0.000000 )
               b(2) = (  0.000000  1.000000  0.000000 )
               b(3) = (  0.000000  0.000000  1.226972 )

     PseudoPot. # 1 for Al read from file:
     ./al_pbe_v1.uspp.F.UPF
     MD5 check sum: 0a6289f5291fc8f409219462bc851e1f
     Pseudo is Ultrasoft + core correction, Zval =  3.0
     Generated by new atomic code, or converted to UPF format
     Using radial grid of  893 points,  3 beta functions with:
                l(1) =   0
                l(2) =   1
                l(3) =   2
     Q(r) pseudized with  8 coefficients,  rinner =    0.900   0.900   0.900
                                                       0.900   0.900

     atomic species   valence    mass     pseudopotential
        Al             3.00    26.98150     Al( 1.00)

     16 Sym. Ops., with inversion, found

                                    s                        frac. trans.

      isym =  1     identity

 cryst.   s( 1) = (     1          0          0      )
                  (     0          1          0      )
                  (     0          0          1      )

 cart.    s( 1) = (  1.0000000  0.0000000  0.0000000 )
                  (  0.0000000  1.0000000  0.0000000 )
                  (  0.0000000  0.0000000  1.0000000 )

      isym =  2     180 deg rotation - cart. axis [0,0,1]

[...]

      isym =  8      90 deg rotation - cart. axis [0,0,1]

[...]

      isym =  9     inversion

 cryst.   s( 9) = (    -1          0          0      )
                  (     0         -1          0      )
                  (     0          0         -1      )

 cart.    s( 9) = ( -1.0000000  0.0000000  0.0000000 )
                  (  0.0000000 -1.0000000  0.0000000 )
                  (  0.0000000  0.0000000 -1.0000000 )

      isym = 10     inv. 180 deg rotation - cart. axis [0,0,1]

 cryst.   s(10) = (     1          0          0      )
                  (     0          1          0      )
                  (     0          0         -1      )

 cart.    s(10) = (  1.0000000  0.0000000  0.0000000 )
                  (  0.0000000  1.0000000  0.0000000 )
                  (  0.0000000  0.0000000 -1.0000000 )

[...]

      isym = 16     inv.  90 deg rotation - cart. axis [0,0,1]

 cryst.   s(16) = (     0         -1          0      )
                  (     1          0          0      )
                  (     0          0         -1      )

 cart.    s(16) = (  0.0000000  1.0000000  0.0000000 )
                  ( -1.0000000  0.0000000  0.0000000 )
                  (  0.0000000  0.0000000 -1.0000000 )

   Cartesian axes

     site n.     atom                  positions (alat units)
         1           Al  tau(   1) = (   0.0000000   0.0000000   0.0000000  )
         2           Al  tau(   2) = (   0.5000000   0.5000000   0.0000000  )
         3           Al  tau(   3) = (   0.5000000   0.0000000   0.4075073  )
         4           Al  tau(   4) = (   0.0000000   0.5000000   0.4075073  )

   Crystallographic axes

     site n.     atom                  positions (cryst. coord.)
         1           Al  tau(   1) = (  0.0000000  0.0000000  0.0000000  )
         2           Al  tau(   2) = (  0.5000000  0.5000000  0.0000000  )
         3           Al  tau(   3) = (  0.5000000  0.0000000  0.5000000  )
         4           Al  tau(   4) = (  0.0000000  0.5000000  0.5000000  )

     number of k points=   660  Marzari-Vanderbilt smearing, width (Ry)=  0.0100
                       cart. coord. in units 2pi/alat
        k(    1) = (   0.0000000   0.0000000   0.0000000), wk =   0.0002806
        k(    2) = (   0.0000000   0.0000000   0.0557714), wk =   0.0005612
        k(    3) = (   0.0000000   0.0000000   0.1115429), wk =   0.0005612
        k(    4) = (   0.0000000   0.0000000   0.1673143), wk =   0.0005612
        k(    5) = (   0.0000000   0.0000000   0.2230858), wk =   0.0005612
        k(    6) = (   0.0000000   0.0000000   0.2788572), wk =   0.0005612
        k(    7) = (   0.0000000   0.0000000   0.3346287), wk =   0.0005612
        k(    8) = (   0.0000000   0.0000000   0.3904001), wk =   0.0005612
        k(    9) = (   0.0000000   0.0000000   0.4461716), wk =   0.0005612
        k(   10) = (   0.0000000   0.0000000   0.5019430), wk =   0.0005612
        k(   11) = (   0.0000000   0.0000000   0.5577145), wk =   0.0005612
        k(   12) = (   0.0000000   0.0000000  -0.6134859), wk =   0.0002806
        k(   13) = (   0.0000000   0.0555556   0.0000000), wk =   0.0011223
        k(   14) = (   0.0000000   0.0555556   0.0557714), wk =   0.0022447
        k(   15) = (   0.0000000   0.0555556   0.1115429), wk =   0.0022447
        k(   16) = (   0.0000000   0.0555556   0.1673143), wk =   0.0022447
        k(   17) = (   0.0000000   0.0555556   0.2230858), wk =   0.0022447
        k(   18) = (   0.0000000   0.0555556   0.2788572), wk =   0.0022447
        k(   19) = (   0.0000000   0.0555556   0.3346287), wk =   0.0022447
        k(   20) = (   0.0000000   0.0555556   0.3904001), wk =   0.0022447
        k(   21) = (   0.0000000   0.0555556   0.4461716), wk =   0.0022447
        k(   22) = (   0.0000000   0.0555556   0.5019430), wk =   0.0022447
        k(   23) = (   0.0000000   0.0555556   0.5577145), wk =   0.0022447
        k(   24) = (   0.0000000   0.0555556  -0.6134859), wk =   0.0011223
        k(   25) = (   0.0000000   0.1111111   0.0000000), wk =   0.0011223
        k(   26) = (   0.0000000   0.1111111   0.0557714), wk =   0.0022447
        k(   27) = (   0.0000000   0.1111111   0.1115429), wk =   0.0022447
        k(   28) = (   0.0000000   0.1111111   0.1673143), wk =   0.0022447
        k(   29) = (   0.0000000   0.1111111   0.2230858), wk =   0.0022447
        k(   30) = (   0.0000000   0.1111111   0.2788572), wk =   0.0022447
        k(   31) = (   0.0000000   0.1111111   0.3346287), wk =   0.0022447
        k(   32) = (   0.0000000   0.1111111   0.3904001), wk =   0.0022447
        k(   33) = (   0.0000000   0.1111111   0.4461716), wk =   0.0022447
        k(   34) = (   0.0000000   0.1111111   0.5019430), wk =   0.0022447
        k(   35) = (   0.0000000   0.1111111   0.5577145), wk =   0.0022447
        k(   36) = (   0.0000000   0.1111111  -0.6134859), wk =   0.0011223
        k(   37) = (   0.0000000   0.1666667   0.0000000), wk =   0.0011223
        k(   38) = (   0.0000000   0.1666667   0.0557714), wk =   0.0022447
        k(   39) = (   0.0000000   0.1666667   0.1115429), wk =   0.0022447
        k(   40) = (   0.0000000   0.1666667   0.1673143), wk =   0.0022447
        k(   41) = (   0.0000000   0.1666667   0.2230858), wk =   0.0022447
        k(   42) = (   0.0000000   0.1666667   0.2788572), wk =   0.0022447
        k(   43) = (   0.0000000   0.1666667   0.3346287), wk =   0.0022447
        k(   44) = (   0.0000000   0.1666667   0.3904001), wk =   0.0022447
        k(   45) = (   0.0000000   0.1666667   0.4461716), wk =   0.0022447
        k(   46) = (   0.0000000   0.1666667   0.5019430), wk =   0.0022447
        k(   47) = (   0.0000000   0.1666667   0.5577145), wk =   0.0022447
        k(   48) = (   0.0000000   0.1666667  -0.6134859), wk =   0.0011223
        k(   49) = (   0.0000000   0.2222222   0.0000000), wk =   0.0011223
        k(   50) = (   0.0000000   0.2222222   0.0557714), wk =   0.0022447
        k(   51) = (   0.0000000   0.2222222   0.1115429), wk =   0.0022447
        k(   52) = (   0.0000000   0.2222222   0.1673143), wk =   0.0022447
        k(   53) = (   0.0000000   0.2222222   0.2230858), wk =   0.0022447
        k(   54) = (   0.0000000   0.2222222   0.2788572), wk =   0.0022447
        k(   55) = (   0.0000000   0.2222222   0.3346287), wk =   0.0022447
        k(   56) = (   0.0000000   0.2222222   0.3904001), wk =   0.0022447
        k(   57) = (   0.0000000   0.2222222   0.4461716), wk =   0.0022447
        k(   58) = (   0.0000000   0.2222222   0.5019430), wk =   0.0022447
        k(   59) = (   0.0000000   0.2222222   0.5577145), wk =   0.0022447
        k(   60) = (   0.0000000   0.2222222  -0.6134859), wk =   0.0011223
[...]
        k(  646) = (   0.4444444  -0.5000000   0.5019430), wk =   0.0022447
        k(  647) = (   0.4444444  -0.5000000   0.5577145), wk =   0.0022447
        k(  648) = (   0.4444444  -0.5000000  -0.6134859), wk =   0.0011223
        k(  649) = (  -0.5000000  -0.5000000   0.0000000), wk =   0.0002806
        k(  650) = (  -0.5000000  -0.5000000   0.0557714), wk =   0.0005612
        k(  651) = (  -0.5000000  -0.5000000   0.1115429), wk =   0.0005612
        k(  652) = (  -0.5000000  -0.5000000   0.1673143), wk =   0.0005612
        k(  653) = (  -0.5000000  -0.5000000   0.2230858), wk =   0.0005612
        k(  654) = (  -0.5000000  -0.5000000   0.2788572), wk =   0.0005612
        k(  655) = (  -0.5000000  -0.5000000   0.3346287), wk =   0.0005612
        k(  656) = (  -0.5000000  -0.5000000   0.3904001), wk =   0.0005612
        k(  657) = (  -0.5000000  -0.5000000   0.4461716), wk =   0.0005612
        k(  658) = (  -0.5000000  -0.5000000   0.5019430), wk =   0.0005612
        k(  659) = (  -0.5000000  -0.5000000   0.5577145), wk =   0.0005612
        k(  660) = (  -0.5000000  -0.5000000  -0.6134859), wk =   0.0002806

                       cryst. coord.
        k(    1) = (   0.0000000   0.0000000   0.0000000), wk =   0.0002806
        k(    2) = (   0.0000000   0.0000000   0.0454545), wk =   0.0005612
        k(    3) = (   0.0000000   0.0000000   0.0909091), wk =   0.0005612
        k(    4) = (   0.0000000   0.0000000   0.1363636), wk =   0.0005612
        k(    5) = (   0.0000000   0.0000000   0.1818182), wk =   0.0005612
        k(    6) = (   0.0000000   0.0000000   0.2272727), wk =   0.0005612
        k(    7) = (   0.0000000   0.0000000   0.2727273), wk =   0.0005612
        k(    8) = (   0.0000000   0.0000000   0.3181818), wk =   0.0005612
        k(    9) = (   0.0000000   0.0000000   0.3636364), wk =   0.0005612
        k(   10) = (   0.0000000   0.0000000   0.4090909), wk =   0.0005612
        k(   11) = (   0.0000000   0.0000000   0.4545455), wk =   0.0005612
        k(   12) = (   0.0000000   0.0000000  -0.5000000), wk =   0.0002806
        k(   13) = (   0.0000000   0.0555556   0.0000000), wk =   0.0011223
        k(   14) = (   0.0000000   0.0555556   0.0454545), wk =   0.0022447
        k(   15) = (   0.0000000   0.0555556   0.0909091), wk =   0.0022447
        k(   16) = (   0.0000000   0.0555556   0.1363636), wk =   0.0022447
        k(   17) = (   0.0000000   0.0555556   0.1818182), wk =   0.0022447
        k(   18) = (   0.0000000   0.0555556   0.2272727), wk =   0.0022447
        k(   19) = (   0.0000000   0.0555556   0.2727273), wk =   0.0022447
        k(   20) = (   0.0000000   0.0555556   0.3181818), wk =   0.0022447
        k(   21) = (   0.0000000   0.0555556   0.3636364), wk =   0.0022447
        k(   22) = (   0.0000000   0.0555556   0.4090909), wk =   0.0022447
        k(   23) = (   0.0000000   0.0555556   0.4545455), wk =   0.0022447
        k(   24) = (   0.0000000   0.0555556  -0.5000000), wk =   0.0011223
        k(   25) = (   0.0000000   0.1111111   0.0000000), wk =   0.0011223
        k(   26) = (   0.0000000   0.1111111   0.0454545), wk =   0.0022447
        k(   27) = (   0.0000000   0.1111111   0.0909091), wk =   0.0022447
        k(   28) = (   0.0000000   0.1111111   0.1363636), wk =   0.0022447
        k(   29) = (   0.0000000   0.1111111   0.1818182), wk =   0.0022447
        k(   30) = (   0.0000000   0.1111111   0.2272727), wk =   0.0022447
        k(   31) = (   0.0000000   0.1111111   0.2727273), wk =   0.0022447
        k(   32) = (   0.0000000   0.1111111   0.3181818), wk =   0.0022447
        k(   33) = (   0.0000000   0.1111111   0.3636364), wk =   0.0022447
        k(   34) = (   0.0000000   0.1111111   0.4090909), wk =   0.0022447
        k(   35) = (   0.0000000   0.1111111   0.4545455), wk =   0.0022447
        k(   36) = (   0.0000000   0.1111111  -0.5000000), wk =   0.0011223
        k(   37) = (   0.0000000   0.1666667   0.0000000), wk =   0.0011223
        k(   38) = (   0.0000000   0.1666667   0.0454545), wk =   0.0022447
        k(   39) = (   0.0000000   0.1666667   0.0909091), wk =   0.0022447
        k(   40) = (   0.0000000   0.1666667   0.1363636), wk =   0.0022447
        k(   41) = (   0.0000000   0.1666667   0.1818182), wk =   0.0022447
        k(   42) = (   0.0000000   0.1666667   0.2272727), wk =   0.0022447
        k(   43) = (   0.0000000   0.1666667   0.2727273), wk =   0.0022447
        k(   44) = (   0.0000000   0.1666667   0.3181818), wk =   0.0022447
        k(   45) = (   0.0000000   0.1666667   0.3636364), wk =   0.0022447
        k(   46) = (   0.0000000   0.1666667   0.4090909), wk =   0.0022447
        k(   47) = (   0.0000000   0.1666667   0.4545455), wk =   0.0022447
        k(   48) = (   0.0000000   0.1666667  -0.5000000), wk =   0.0011223
        k(   49) = (   0.0000000   0.2222222   0.0000000), wk =   0.0011223
        k(   50) = (   0.0000000   0.2222222   0.0454545), wk =   0.0022447
        k(   51) = (   0.0000000   0.2222222   0.0909091), wk =   0.0022447
        k(   52) = (   0.0000000   0.2222222   0.1363636), wk =   0.0022447
        k(   53) = (   0.0000000   0.2222222   0.1818182), wk =   0.0022447
        k(   54) = (   0.0000000   0.2222222   0.2272727), wk =   0.0022447
        k(   55) = (   0.0000000   0.2222222   0.2727273), wk =   0.0022447
        k(   56) = (   0.0000000   0.2222222   0.3181818), wk =   0.0022447
        k(   57) = (   0.0000000   0.2222222   0.3636364), wk =   0.0022447
        k(   58) = (   0.0000000   0.2222222   0.4090909), wk =   0.0022447
        k(   59) = (   0.0000000   0.2222222   0.4545455), wk =   0.0022447
        k(   60) = (   0.0000000   0.2222222  -0.5000000), wk =   0.0011223
[...]
        k(  646) = (   0.4444444  -0.5000000   0.4090909), wk =   0.0022447
        k(  647) = (   0.4444444  -0.5000000   0.4545455), wk =   0.0022447
        k(  648) = (   0.4444444  -0.5000000  -0.5000000), wk =   0.0011223
        k(  649) = (  -0.5000000  -0.5000000   0.0000000), wk =   0.0002806
        k(  650) = (  -0.5000000  -0.5000000   0.0454545), wk =   0.0005612
        k(  651) = (  -0.5000000  -0.5000000   0.0909091), wk =   0.0005612
        k(  652) = (  -0.5000000  -0.5000000   0.1363636), wk =   0.0005612
        k(  653) = (  -0.5000000  -0.5000000   0.1818182), wk =   0.0005612
        k(  654) = (  -0.5000000  -0.5000000   0.2272727), wk =   0.0005612
        k(  655) = (  -0.5000000  -0.5000000   0.2727273), wk =   0.0005612
        k(  656) = (  -0.5000000  -0.5000000   0.3181818), wk =   0.0005612
        k(  657) = (  -0.5000000  -0.5000000   0.3636364), wk =   0.0005612
        k(  658) = (  -0.5000000  -0.5000000   0.4090909), wk =   0.0005612
        k(  659) = (  -0.5000000  -0.5000000   0.4545455), wk =   0.0005612
        k(  660) = (  -0.5000000  -0.5000000  -0.5000000), wk =   0.0002806

     Initial potential from superposition of free atoms

     starting charge   11.99014, renormalised to   12.00000
     Starting wfc are   16 randomized atomic wfcs

     Self-consistent Calculation

     iteration #  1     ecut=    25.00 Ry     beta= 0.70
     Davidson diagonalization with overlap
     ethr =  1.00E-02,  avg # of iterations =  3.5

     Threshold (ethr) on eigenvalues was too large:
     Diagonalizing with lowered threshold

     Davidson diagonalization with overlap
     ethr =  2.01E-04,  avg # of iterations =  2.0

     total energy              =     -26.74383395 Ry
     Harris-Foulkes estimate   =     -26.75245579 Ry
     estimated scf accuracy    <       0.02405989 Ry

[...]

     total energy              =     -26.74390178 Ry
     Harris-Foulkes estimate   =     -26.74390188 Ry
     estimated scf accuracy    <       0.00000026 Ry

     iteration #  5     ecut=    25.00 Ry     beta= 0.70
     Davidson diagonalization with overlap
     ethr =  2.16E-09,  avg # of iterations =  2.0

     End of self-consistent calculation

          k = 0.0000 0.0000 0.0000 (   737 PWs)   bands (ev):

    -2.4826   5.6681   5.6681   7.0837   7.0837   9.6913  11.3973  13.8885
    14.1152  14.1152

     occupation numbers
     1.0000   1.0000   1.0000   1.0000   1.0000   1.0000   0.0000   0.0000
     0.0000   0.0000

[...]

          k = 0.4444-0.5000-0.6135 (   780 PWs)   bands (ev):

[...]

          k =-0.5000-0.5000 0.0000 (   776 PWs)   bands (ev):

[...]

          k =-0.5000-0.5000-0.6135 (   776 PWs)   bands (ev):

     4.8285   4.8286   4.8286   4.8287   5.7342   5.7343   5.7343   5.7344
    21.3006  21.3011

     occupation numbers
     1.0000   1.0000   1.0000   1.0000   1.0000   1.0000   1.0000   1.0000
     0.0000   0.0000

     the Fermi energy is    10.1946 ev

!    total energy              =     -26.74390177 Ry
     Harris-Foulkes estimate   =     -26.74390181 Ry
     estimated scf accuracy    <       0.00000007 Ry

     The total energy is the sum of the following terms:

     one-electron contribution =      14.01863485 Ry
     hartree contribution      =       0.04119735 Ry
     xc contribution           =     -17.65431113 Ry
     ewald contribution        =     -23.14943757 Ry
     smearing contrib. (-TS)   =       0.00001472 Ry

     convergence has been achieved in   5 iterations

     General routines

     Parallel routines

   This run was terminated on:  17:12:22  24Jan2019

   JOB DONE.