     Program PWSCF v.6.2 (svn rev. 14038) starts on 24Jan2019 at 12:26:46

     Reading input from ./Al14.in
Warning: card &IONS ignored
Warning: card / ignored
Warning: card &CELL ignored
Warning: card / ignored

     Current dimensions of program PWSCF are:
     Max number of different atomic species (ntypx) = 10
     Max number of k-points (npk) =  40000
     Max angular momentum in pseudopotentials (lmaxx) =  3
     Message from routine iosys:
     minimal I/O required, wf_collect reset to FALSE

     Subspace diagonalization in iterative solution of the eigenvalue problem:
     a serial algorithm will be used

     bravais-lattice index     =            0
     lattice parameter (alat)  =       5.3970  a.u.
     unit-cell volume          =     111.1567 (a.u.)^3
     number of atoms/cell      =            1
     number of atomic types    =            1
     number of electrons       =         3.00
     number of Kohn-Sham states=            6
     kinetic-energy cutoff     =      35.0000  Ry
     charge density cutoff     =     140.0000  Ry
     convergence threshold     =      1.0E-05
     mixing beta               =       0.7000
     number of iterations used =            8  plain     mixing
     Exchange-correlation      = SLA  PZ   NOGX NOGC ( 1  1  0  0 0 0)

     celldm(1)=   5.396971  celldm(2)=   0.000000  celldm(3)=   0.000000
     celldm(4)=   0.000000  celldm(5)=   0.000000  celldm(6)=   0.000000

     crystal axes: (cart. coord. in units of alat)
               a(1) = (   0.866025   0.000000   0.500000 )
               a(2) = (   0.288675   0.816497   0.500000 )
               a(3) = (   0.000000   0.000000   1.000000 )

     reciprocal axes: (cart. coord. in units 2 pi/alat)
               b(1) = (  1.154701 -0.408248  0.000000 )
               b(2) = (  0.000000  1.224745  0.000000 )
               b(3) = ( -0.577350 -0.408248  1.000000 )

     PseudoPot. # 1 for Al read from file:
     ./al_lda_v1.uspp.F.UPF
     MD5 check sum: 51a9e5980debfdd3404790b200e14add
     Pseudo is Ultrasoft + core correction, Zval =  3.0
     Generated by new atomic code, or converted to UPF format
     Using radial grid of  893 points,  3 beta functions with:
                l(1) =   0
                l(2) =   1
                l(3) =   2
     Q(r) pseudized with  8 coefficients,  rinner =    0.900   0.900   0.900
                                                       0.900   0.900

     atomic species   valence    mass     pseudopotential
        Al             3.00    26.98150     Al( 1.00)

      4 Sym. Ops., with inversion, found

                                    s                        frac. trans.

      isym =  1     identity

 cryst.   s( 1) = (     1          0          0      )
                  (     0          1          0      )
                  (     0          0          1      )

 cart.    s( 1) = (  1.0000000  0.0000000  0.0000000 )
                  (  0.0000000  1.0000000  0.0000000 )
                  (  0.0000000 -0.0000000  1.0000000 )

      isym =  2     180 deg rotation - cart. axis [0,0,1]

[...]

      isym =  3     inversion

[...]

      isym =  4     inv. 180 deg rotation - cart. axis [0,0,1]

 cryst.   s( 4) = (     1          0         -1      )
                  (     0          1         -1      )
                  (     0          0         -1      )

 cart.    s( 4) = (  1.0000000  0.0000000  0.0000000 )
                  (  0.0000000  1.0000000  0.0000000 )
                  ( -0.0000004 -0.0000003 -1.0000000 )

   Cartesian axes

     site n.     atom                  positions (alat units)
         1           Al  tau(   1) = (   0.0000000   0.0000000   0.0000000  )

   Crystallographic axes

     site n.     atom                  positions (cryst. coord.)
         1           Al  tau(   1) = (  0.0000000  0.0000000  0.0000000  )

     number of k points=   744  Marzari-Vanderbilt smearing, width (Ry)=  0.0100
                       cart. coord. in units 2pi/alat
        k(    1) = (   0.0000000   0.0000000   0.0000000), wk =   0.0007289
        k(    2) = (  -0.0412393  -0.0291606   0.0714286), wk =   0.0029155
        k(    3) = (  -0.0824786  -0.0583212   0.1428571), wk =   0.0029155
        k(    4) = (  -0.1237179  -0.0874817   0.2142857), wk =   0.0029155
        k(    5) = (  -0.1649572  -0.1166423   0.2857142), wk =   0.0029155
        k(    6) = (  -0.2061964  -0.1458029   0.3571428), wk =   0.0029155
        k(    7) = (  -0.2474357  -0.1749635   0.4285713), wk =   0.0029155
        k(    8) = (   0.2886750   0.2041241  -0.4999999), wk =   0.0014577
        k(    9) = (   0.0000000   0.0874818   0.0000000), wk =   0.0014577
        k(   10) = (  -0.0412393   0.0583212   0.0714286), wk =   0.0029155
        k(   11) = (  -0.0824786   0.0291606   0.1428571), wk =   0.0029155
        k(   12) = (  -0.1237179   0.0000000   0.2142857), wk =   0.0029155
        k(   13) = (  -0.1649572  -0.0291605   0.2857142), wk =   0.0029155
        k(   14) = (  -0.2061964  -0.0583211   0.3571428), wk =   0.0029155
        k(   15) = (  -0.2474357  -0.0874817   0.4285713), wk =   0.0029155
        k(   16) = (   0.2886750   0.2916058  -0.4999999), wk =   0.0029155
        k(   17) = (   0.2474357   0.2624453  -0.4285713), wk =   0.0029155
        k(   18) = (   0.2061964   0.2332847  -0.3571428), wk =   0.0029155
        k(   19) = (   0.1649572   0.2041241  -0.2857142), wk =   0.0029155
        k(   20) = (   0.1237179   0.1749635  -0.2142857), wk =   0.0029155
        k(   21) = (   0.0824786   0.1458029  -0.1428571), wk =   0.0029155
        k(   22) = (   0.0412393   0.1166424  -0.0714286), wk =   0.0029155
        k(   23) = (   0.0000000   0.1749635   0.0000000), wk =   0.0014577
        k(   24) = (  -0.0412393   0.1458030   0.0714286), wk =   0.0029155
        k(   25) = (  -0.0824786   0.1166424   0.1428571), wk =   0.0029155
        k(   26) = (  -0.1237179   0.0874818   0.2142857), wk =   0.0029155
        k(   27) = (  -0.1649572   0.0583212   0.2857142), wk =   0.0029155
        k(   28) = (  -0.2061964   0.0291606   0.3571428), wk =   0.0029155
        k(   29) = (  -0.2474357   0.0000001   0.4285713), wk =   0.0029155
        k(   30) = (   0.2886750   0.3790876  -0.4999999), wk =   0.0029155
        k(   31) = (   0.2474357   0.3499270  -0.4285713), wk =   0.0029155
        k(   32) = (   0.2061964   0.3207664  -0.3571428), wk =   0.0029155
        k(   33) = (   0.1649572   0.2916059  -0.2857142), wk =   0.0029155
        k(   34) = (   0.1237179   0.2624453  -0.2142857), wk =   0.0029155
        k(   35) = (   0.0824786   0.2332847  -0.1428571), wk =   0.0029155
        k(   36) = (   0.0412393   0.2041241  -0.0714286), wk =   0.0029155
        k(   37) = (   0.0000000   0.2624453   0.0000000), wk =   0.0014577
        k(   38) = (  -0.0412393   0.2332847   0.0714286), wk =   0.0029155
        k(   39) = (  -0.0824786   0.2041242   0.1428571), wk =   0.0029155
        k(   40) = (  -0.1237179   0.1749636   0.2142857), wk =   0.0029155
        k(   41) = (  -0.1649572   0.1458030   0.2857142), wk =   0.0029155
        k(   42) = (  -0.2061964   0.1166424   0.3571428), wk =   0.0029155
        k(   43) = (  -0.2474357   0.0874818   0.4285713), wk =   0.0029155
        k(   44) = (   0.2886750   0.4665694  -0.4999999), wk =   0.0029155
        k(   45) = (   0.2474357   0.4374088  -0.4285713), wk =   0.0029155
        k(   46) = (   0.2061964   0.4082482  -0.3571428), wk =   0.0029155
        k(   47) = (   0.1649572   0.3790876  -0.2857142), wk =   0.0029155
        k(   48) = (   0.1237179   0.3499271  -0.2142857), wk =   0.0029155
        k(   49) = (   0.0824786   0.3207665  -0.1428571), wk =   0.0029155
        k(   50) = (   0.0412393   0.2916059  -0.0714286), wk =   0.0029155
        k(   51) = (   0.0000000   0.3499271   0.0000000), wk =   0.0014577
        k(   52) = (  -0.0412393   0.3207665   0.0714286), wk =   0.0029155
        k(   53) = (  -0.0824786   0.2916059   0.1428571), wk =   0.0029155
        k(   54) = (  -0.1237179   0.2624453   0.2142857), wk =   0.0029155
        k(   55) = (  -0.1649572   0.2332848   0.2857142), wk =   0.0029155
        k(   56) = (  -0.2061964   0.2041242   0.3571428), wk =   0.0029155
        k(   57) = (  -0.2474357   0.1749636   0.4285713), wk =   0.0029155
        k(   58) = (   0.2886750   0.5540512  -0.4999999), wk =   0.0029155
        k(   59) = (   0.2474357   0.5248906  -0.4285713), wk =   0.0029155
        k(   60) = (   0.2061964   0.4957300  -0.3571428), wk =   0.0029155
[...]
        k(  730) = (   0.4948716  -0.4374089   0.0000000), wk =   0.0014577
        k(  731) = (   0.5361109  -0.4082483  -0.0714286), wk =   0.0029155
        k(  732) = (   0.4948716  -0.3499271   0.0000000), wk =   0.0014577
        k(  733) = (   0.5361109  -0.3207665  -0.0714286), wk =   0.0029155
        k(  734) = (   0.4948716  -0.2624453   0.0000000), wk =   0.0014577
        k(  735) = (   0.5773502  -0.2041242  -0.1428571), wk =   0.0014577
        k(  736) = (   0.5361109  -0.2332847  -0.0714286), wk =   0.0029155
        k(  737) = (  -0.5773503   0.2041241   0.0000000), wk =   0.0007289
        k(  738) = (  -0.5773503   0.2916059   0.0000000), wk =   0.0014577
        k(  739) = (  -0.5773503   0.3790877   0.0000000), wk =   0.0014577
        k(  740) = (  -0.5773503   0.4665695   0.0000000), wk =   0.0014577
        k(  741) = (  -0.5773503   0.5540512   0.0000000), wk =   0.0014577
        k(  742) = (  -0.5773503   0.6415330   0.0000000), wk =   0.0014577
        k(  743) = (  -0.5773503   0.7290148   0.0000000), wk =   0.0014577
        k(  744) = (  -0.5773503  -0.4082483   0.0000000), wk =   0.0007289

                       cryst. coord.
        k(    1) = (   0.0000000   0.0000000   0.0000000), wk =   0.0007289
        k(    2) = (   0.0000000  -0.0000000   0.0714286), wk =   0.0029155
        k(    3) = (   0.0000000  -0.0000000   0.1428571), wk =   0.0029155
        k(    4) = (   0.0000000  -0.0000000   0.2142857), wk =   0.0029155
        k(    5) = (   0.0000000  -0.0000000   0.2857143), wk =   0.0029155
        k(    6) = (   0.0000000   0.0000000   0.3571429), wk =   0.0029155
        k(    7) = (   0.0000000  -0.0000000   0.4285714), wk =   0.0029155
        k(    8) = (  -0.0000000   0.0000000  -0.5000000), wk =   0.0014577
        k(    9) = (   0.0000000   0.0714286   0.0000000), wk =   0.0014577
        k(   10) = (   0.0000000   0.0714286   0.0714286), wk =   0.0029155
        k(   11) = (   0.0000000   0.0714286   0.1428571), wk =   0.0029155
        k(   12) = (   0.0000000   0.0714286   0.2142857), wk =   0.0029155
        k(   13) = (   0.0000000   0.0714286   0.2857143), wk =   0.0029155
        k(   14) = (   0.0000000   0.0714286   0.3571429), wk =   0.0029155
        k(   15) = (   0.0000000   0.0714286   0.4285714), wk =   0.0029155
        k(   16) = (  -0.0000000   0.0714286  -0.5000000), wk =   0.0029155
        k(   17) = (  -0.0000000   0.0714286  -0.4285714), wk =   0.0029155
        k(   18) = (  -0.0000000   0.0714286  -0.3571429), wk =   0.0029155
        k(   19) = (   0.0000000   0.0714286  -0.2857143), wk =   0.0029155
        k(   20) = (  -0.0000000   0.0714286  -0.2142857), wk =   0.0029155
        k(   21) = (   0.0000000   0.0714286  -0.1428571), wk =   0.0029155
        k(   22) = (  -0.0000000   0.0714286  -0.0714286), wk =   0.0029155
        k(   23) = (   0.0000000   0.1428571   0.0000000), wk =   0.0014577
        k(   24) = (   0.0000000   0.1428571   0.0714286), wk =   0.0029155
        k(   25) = (   0.0000000   0.1428571   0.1428571), wk =   0.0029155
        k(   26) = (   0.0000000   0.1428571   0.2142857), wk =   0.0029155
        k(   27) = (   0.0000000   0.1428571   0.2857143), wk =   0.0029155
        k(   28) = (   0.0000000   0.1428571   0.3571429), wk =   0.0029155
        k(   29) = (   0.0000000   0.1428571   0.4285714), wk =   0.0029155
        k(   30) = (  -0.0000000   0.1428571  -0.5000000), wk =   0.0029155
        k(   31) = (  -0.0000000   0.1428571  -0.4285714), wk =   0.0029155
        k(   32) = (  -0.0000000   0.1428571  -0.3571429), wk =   0.0029155
        k(   33) = (   0.0000000   0.1428571  -0.2857143), wk =   0.0029155
        k(   34) = (  -0.0000000   0.1428571  -0.2142857), wk =   0.0029155
        k(   35) = (   0.0000000   0.1428571  -0.1428571), wk =   0.0029155
        k(   36) = (  -0.0000000   0.1428571  -0.0714286), wk =   0.0029155
        k(   37) = (   0.0000000   0.2142857   0.0000000), wk =   0.0014577
        k(   38) = (   0.0000000   0.2142857   0.0714286), wk =   0.0029155
        k(   39) = (   0.0000000   0.2142857   0.1428571), wk =   0.0029155
        k(   40) = (   0.0000000   0.2142857   0.2142857), wk =   0.0029155
        k(   41) = (   0.0000000   0.2142857   0.2857143), wk =   0.0029155
        k(   42) = (   0.0000000   0.2142857   0.3571429), wk =   0.0029155
        k(   43) = (   0.0000000   0.2142857   0.4285714), wk =   0.0029155
        k(   44) = (  -0.0000000   0.2142857  -0.5000000), wk =   0.0029155
        k(   45) = (  -0.0000000   0.2142857  -0.4285714), wk =   0.0029155
        k(   46) = (  -0.0000000   0.2142857  -0.3571429), wk =   0.0029155
        k(   47) = (   0.0000000   0.2142857  -0.2857143), wk =   0.0029155
        k(   48) = (  -0.0000000   0.2142857  -0.2142857), wk =   0.0029155
        k(   49) = (   0.0000000   0.2142857  -0.1428571), wk =   0.0029155
        k(   50) = (  -0.0000000   0.2142857  -0.0714286), wk =   0.0029155
        k(   51) = (   0.0000000   0.2857143   0.0000000), wk =   0.0014577
        k(   52) = (   0.0000000   0.2857143   0.0714286), wk =   0.0029155
        k(   53) = (   0.0000000   0.2857143   0.1428571), wk =   0.0029155
        k(   54) = (   0.0000000   0.2857143   0.2142857), wk =   0.0029155
        k(   55) = (   0.0000000   0.2857143   0.2857143), wk =   0.0029155
        k(   56) = (   0.0000000   0.2857143   0.3571429), wk =   0.0029155
        k(   57) = (   0.0000000   0.2857143   0.4285714), wk =   0.0029155
        k(   58) = (  -0.0000000   0.2857143  -0.5000000), wk =   0.0029155
        k(   59) = (  -0.0000000   0.2857143  -0.4285714), wk =   0.0029155
        k(   60) = (  -0.0000000   0.2857143  -0.3571429), wk =   0.0029155
[...]
        k(  730) = (   0.4285714  -0.2142857   0.0000000), wk =   0.0014577
        k(  731) = (   0.4285714  -0.2142857  -0.0714286), wk =   0.0029155
        k(  732) = (   0.4285714  -0.1428571   0.0000000), wk =   0.0014577
        k(  733) = (   0.4285714  -0.1428571  -0.0714286), wk =   0.0029155
        k(  734) = (   0.4285714  -0.0714286   0.0000000), wk =   0.0014577
        k(  735) = (   0.4285714  -0.0714286  -0.1428571), wk =   0.0014577
        k(  736) = (   0.4285714  -0.0714286  -0.0714286), wk =   0.0029155
        k(  737) = (  -0.5000000   0.0000000   0.0000000), wk =   0.0007289
        k(  738) = (  -0.5000000   0.0714286   0.0000000), wk =   0.0014577
        k(  739) = (  -0.5000000   0.1428571   0.0000000), wk =   0.0014577
        k(  740) = (  -0.5000000   0.2142857   0.0000000), wk =   0.0014577
        k(  741) = (  -0.5000000   0.2857143   0.0000000), wk =   0.0014577
        k(  742) = (  -0.5000000   0.3571429   0.0000000), wk =   0.0014577
        k(  743) = (  -0.5000000   0.4285714   0.0000000), wk =   0.0014577
        k(  744) = (  -0.5000000  -0.5000000   0.0000000), wk =   0.0007289

     Initial potential from superposition of free atoms

     starting charge    2.99781, renormalised to    3.00000
     Starting wfc are    4 randomized atomic wfcs +    2 random wfc

     Self-consistent Calculation

     iteration #  1     ecut=    35.00 Ry     beta= 0.70
     Davidson diagonalization with overlap
     ethr =  1.00E-02,  avg # of iterations =  4.6

     Threshold (ethr) on eigenvalues was too large:
     Diagonalizing with lowered threshold

     Davidson diagonalization with overlap
     ethr =  2.02E-04,  avg # of iterations =  1.4

     total energy              =      -6.64301772 Ry
     Harris-Foulkes estimate   =      -6.64553191 Ry
     estimated scf accuracy    <       0.00607033 Ry

[...]

     total energy              =      -6.64308186 Ry
     Harris-Foulkes estimate   =      -6.64320148 Ry
     estimated scf accuracy    <       0.00032319 Ry

     iteration #  3     ecut=    35.00 Ry     beta= 0.70
     Davidson diagonalization with overlap
     ethr =  1.08E-05,  avg # of iterations =  1.7

     End of self-consistent calculation

          k = 0.0000 0.0000 0.0000 (   387 PWs)   bands (ev):

    -3.4454  20.2875  20.2878  21.4066  21.4066  21.4066

     occupation numbers
     1.0000   0.0000   0.0000   0.0000   0.0000   0.0000

          k =-0.0412-0.0292 0.0714 (   375 PWs)   bands (ev):

[...]

          k = 0.5361-0.2333-0.0714 (   391 PWs)   bands (ev):

[...]

          k =-0.5774-0.4082 0.0000 (   388 PWs)   bands (ev):

     4.7786   6.0986  13.0551  13.2146  13.2146  16.5572

     occupation numbers
     1.0000   1.0000   0.0000   0.0000   0.0000   0.0000

     the Fermi energy is     7.6775 ev

!    total energy              =      -6.64309729 Ry
     Harris-Foulkes estimate   =      -6.64309762 Ry
     estimated scf accuracy    <       0.00000137 Ry

     The total energy is the sum of the following terms:

     one-electron contribution =       2.98380707 Ry
     hartree contribution      =       0.00842474 Ry
     xc contribution           =      -4.22897783 Ry
     ewald contribution        =      -5.40634338 Ry
     smearing contrib. (-TS)   =      -0.00000789 Ry

     convergence has been achieved in   3 iterations

     General routines

     Parallel routines

   This run was terminated on:  12:27: 9  24Jan2019

   JOB DONE.