     Program PWSCF v.6.2 (svn rev. 14038) starts on 31Jan2019 at  0: 9:38

     Reading input from ./4654bef972e9.in
Warning: card &CELL ignored
Warning: card / ignored

     Current dimensions of program PWSCF are:
     Max number of different atomic species (ntypx) = 10
     Max number of k-points (npk) =  40000
     Max angular momentum in pseudopotentials (lmaxx) =  3
     Message from routine iosys:
     minimal I/O required, wf_collect reset to FALSE

     Subspace diagonalization in iterative solution of the eigenvalue problem:
     a serial algorithm will be used

     bravais-lattice index     =            0
     lattice parameter (alat)  =       5.9461  a.u.
     unit-cell volume          =     148.6584 (a.u.)^3
     number of atoms/cell      =            1
     number of atomic types    =            1
     number of electrons       =         4.00
     number of Kohn-Sham states=            6
     kinetic-energy cutoff     =      35.0000  Ry
     charge density cutoff     =     140.0000  Ry
     convergence threshold     =      1.0E-06
     mixing beta               =       0.7000
     number of iterations used =            8  plain     mixing
     Exchange-correlation      = SLA  PW   PBE  PBE ( 1  4  3  4 0 0)
     nstep                     =           50

     celldm(1)=   5.946136  celldm(2)=   0.000000  celldm(3)=   0.000000
     celldm(4)=   0.000000  celldm(5)=   0.000000  celldm(6)=   0.000000

     crystal axes: (cart. coord. in units of alat)
               a(1) = (   0.866026   0.000000   0.500000 )
               a(2) = (   0.288675   0.816497   0.500000 )
               a(3) = (   0.000000   0.000000   1.000000 )

     reciprocal axes: (cart. coord. in units 2 pi/alat)
               b(1) = (  1.154700 -0.408248  0.000000 )
               b(2) = (  0.000000  1.224745  0.000000 )
               b(3) = ( -0.577350 -0.408248  1.000000 )

     PseudoPot. # 1 for Si read from file:
     ./si_pbe_v1.uspp.F.UPF
     MD5 check sum: a056efeee980c13900f22a371efd63c1
     Pseudo is Ultrasoft + core correction, Zval =  4.0
     Generated by new atomic code, or converted to UPF format
     Using radial grid of  899 points,  6 beta functions with:
                l(1) =   0
                l(2) =   0
                l(3) =   1
                l(4) =   1
                l(5) =   2
                l(6) =   2
     Q(r) pseudized with  8 coefficients,  rinner =    0.900   0.900   0.900
                                                       0.900   0.900

     atomic species   valence    mass     pseudopotential
        Si             4.00    28.08550     Si( 1.00)

      4 Sym. Ops., with inversion, found

                                    s                        frac. trans.

      isym =  1     identity

 cryst.   s( 1) = (     1          0          0      )
                  (     0          1          0      )
                  (     0          0          1      )

 cart.    s( 1) = (  1.0000000  0.0000000  0.0000000 )
                  (  0.0000000  1.0000000  0.0000000 )
                  ( -0.0000000 -0.0000000  1.0000000 )

      isym =  2     180 deg rotation - cart. axis [0,0,1]

[...]

      isym =  3     inversion

[...]

      isym =  4     inv. 180 deg rotation - cart. axis [0,0,1]

 cryst.   s( 4) = (     1          0         -1      )
                  (     0          1         -1      )
                  (     0          0         -1      )

 cart.    s( 4) = (  1.0000000  0.0000000  0.0000000 )
                  (  0.0000000  1.0000000  0.0000000 )
                  ( -0.0000007 -0.0000005 -1.0000000 )

   Cartesian axes

     site n.     atom                  positions (alat units)
         1           Si  tau(   1) = (   0.0000000   0.0000000   0.0000000  )

   Crystallographic axes

     site n.     atom                  positions (cryst. coord.)
         1           Si  tau(   1) = (  0.0000000  0.0000000  0.0000000  )

     number of k points=   476  Marzari-Vanderbilt smearing, width (Ry)=  0.0038
                       cart. coord. in units 2pi/alat
        k(    1) = (   0.0000000   0.0000000   0.0000000), wk =   0.0011574
        k(    2) = (  -0.0481125  -0.0340207   0.0833333), wk =   0.0046296
        k(    3) = (  -0.0962250  -0.0680414   0.1666666), wk =   0.0046296
        k(    4) = (  -0.1443375  -0.1020621   0.2500000), wk =   0.0046296
        k(    5) = (  -0.1924499  -0.1360827   0.3333333), wk =   0.0046296
        k(    6) = (  -0.2405624  -0.1701034   0.4166666), wk =   0.0046296
        k(    7) = (   0.2886749   0.2041241  -0.4999999), wk =   0.0023148
        k(    8) = (   0.0000000   0.1020621   0.0000000), wk =   0.0023148
        k(    9) = (  -0.0481125   0.0680414   0.0833333), wk =   0.0046296
        k(   10) = (  -0.0962250   0.0340207   0.1666666), wk =   0.0046296
        k(   11) = (  -0.1443375   0.0000000   0.2500000), wk =   0.0046296
        k(   12) = (  -0.1924499  -0.0340207   0.3333333), wk =   0.0046296
        k(   13) = (  -0.2405624  -0.0680413   0.4166666), wk =   0.0046296
        k(   14) = (   0.2886749   0.3061862  -0.4999999), wk =   0.0046296
        k(   15) = (   0.2405624   0.2721655  -0.4166666), wk =   0.0046296
        k(   16) = (   0.1924499   0.2381448  -0.3333333), wk =   0.0046296
        k(   17) = (   0.1443375   0.2041241  -0.2500000), wk =   0.0046296
        k(   18) = (   0.0962250   0.1701034  -0.1666666), wk =   0.0046296
        k(   19) = (   0.0481125   0.1360828  -0.0833333), wk =   0.0046296
        k(   20) = (   0.0000000   0.2041242   0.0000000), wk =   0.0023148
        k(   21) = (  -0.0481125   0.1701035   0.0833333), wk =   0.0046296
        k(   22) = (  -0.0962250   0.1360828   0.1666666), wk =   0.0046296
        k(   23) = (  -0.1443375   0.1020621   0.2500000), wk =   0.0046296
        k(   24) = (  -0.1924499   0.0680414   0.3333333), wk =   0.0046296
        k(   25) = (  -0.2405624   0.0340207   0.4166666), wk =   0.0046296
        k(   26) = (   0.2886749   0.4082483  -0.4999999), wk =   0.0046296
        k(   27) = (   0.2405624   0.3742276  -0.4166666), wk =   0.0046296
        k(   28) = (   0.1924499   0.3402069  -0.3333333), wk =   0.0046296
        k(   29) = (   0.1443375   0.3061862  -0.2500000), wk =   0.0046296
        k(   30) = (   0.0962250   0.2721655  -0.1666666), wk =   0.0046296
        k(   31) = (   0.0481125   0.2381448  -0.0833333), wk =   0.0046296
        k(   32) = (   0.0000000   0.3061862   0.0000000), wk =   0.0023148
        k(   33) = (  -0.0481125   0.2721656   0.0833333), wk =   0.0046296
        k(   34) = (  -0.0962250   0.2381449   0.1666666), wk =   0.0046296
        k(   35) = (  -0.1443375   0.2041242   0.2500000), wk =   0.0046296
        k(   36) = (  -0.1924499   0.1701035   0.3333333), wk =   0.0046296
        k(   37) = (  -0.2405624   0.1360828   0.4166666), wk =   0.0046296
        k(   38) = (   0.2886749   0.5103103  -0.4999999), wk =   0.0046296
        k(   39) = (   0.2405624   0.4762897  -0.4166666), wk =   0.0046296
        k(   40) = (   0.1924499   0.4422690  -0.3333333), wk =   0.0046296
        k(   41) = (   0.1443375   0.4082483  -0.2500000), wk =   0.0046296
        k(   42) = (   0.0962250   0.3742276  -0.1666666), wk =   0.0046296
        k(   43) = (   0.0481125   0.3402069  -0.0833333), wk =   0.0046296
        k(   44) = (   0.0000000   0.4082483   0.0000000), wk =   0.0023148
        k(   45) = (  -0.0481125   0.3742276   0.0833333), wk =   0.0046296
        k(   46) = (  -0.0962250   0.3402069   0.1666666), wk =   0.0046296
        k(   47) = (  -0.1443375   0.3061863   0.2500000), wk =   0.0046296
        k(   48) = (  -0.1924499   0.2721656   0.3333333), wk =   0.0046296
        k(   49) = (  -0.2405624   0.2381449   0.4166666), wk =   0.0046296
        k(   50) = (   0.2886749   0.6123724  -0.4999999), wk =   0.0046296
        k(   51) = (   0.2405624   0.5783517  -0.4166666), wk =   0.0046296
        k(   52) = (   0.1924499   0.5443310  -0.3333333), wk =   0.0046296
        k(   53) = (   0.1443375   0.5103104  -0.2500000), wk =   0.0046296
        k(   54) = (   0.0962250   0.4762897  -0.1666666), wk =   0.0046296
        k(   55) = (   0.0481125   0.4422690  -0.0833333), wk =   0.0046296
        k(   56) = (   0.0000000   0.5103104   0.0000000), wk =   0.0023148
        k(   57) = (  -0.0481125   0.4762897   0.0833333), wk =   0.0046296
        k(   58) = (  -0.0962250   0.4422690   0.1666666), wk =   0.0046296
        k(   59) = (  -0.1443375   0.4082483   0.2500000), wk =   0.0046296
        k(   60) = (  -0.1924499   0.3742277   0.3333333), wk =   0.0046296
[...]
        k(  462) = (   0.5292376  -0.5443310  -0.0833333), wk =   0.0046296
        k(  463) = (   0.4811251  -0.4762896   0.0000000), wk =   0.0023148
        k(  464) = (   0.5292376  -0.4422689  -0.0833333), wk =   0.0046296
        k(  465) = (   0.4811251  -0.3742275   0.0000000), wk =   0.0023148
        k(  466) = (   0.5292376  -0.3402068  -0.0833333), wk =   0.0046296
        k(  467) = (   0.4811251  -0.2721654   0.0000000), wk =   0.0023148
        k(  468) = (   0.5773501  -0.2041241  -0.1666666), wk =   0.0023148
        k(  469) = (   0.5292376  -0.2381447  -0.0833333), wk =   0.0046296
        k(  470) = (  -0.5773502   0.2041240   0.0000000), wk =   0.0011574
        k(  471) = (  -0.5773502   0.3061861   0.0000000), wk =   0.0023148
        k(  472) = (  -0.5773502   0.4082482   0.0000000), wk =   0.0023148
        k(  473) = (  -0.5773502   0.5103102   0.0000000), wk =   0.0023148
        k(  474) = (  -0.5773502   0.6123723   0.0000000), wk =   0.0023148
        k(  475) = (  -0.5773502   0.7144344   0.0000000), wk =   0.0023148
        k(  476) = (  -0.5773502  -0.4082485   0.0000000), wk =   0.0011574

                       cryst. coord.
        k(    1) = (   0.0000000   0.0000000   0.0000000), wk =   0.0011574
        k(    2) = (   0.0000000   0.0000000   0.0833333), wk =   0.0046296
        k(    3) = (   0.0000000   0.0000000   0.1666667), wk =   0.0046296
        k(    4) = (  -0.0000000   0.0000000   0.2500000), wk =   0.0046296
        k(    5) = (   0.0000000   0.0000000   0.3333333), wk =   0.0046296
        k(    6) = (  -0.0000000  -0.0000000   0.4166667), wk =   0.0046296
        k(    7) = (   0.0000000   0.0000000  -0.5000000), wk =   0.0023148
        k(    8) = (   0.0000000   0.0833333   0.0000000), wk =   0.0023148
        k(    9) = (   0.0000000   0.0833333   0.0833333), wk =   0.0046296
        k(   10) = (   0.0000000   0.0833333   0.1666667), wk =   0.0046296
        k(   11) = (  -0.0000000   0.0833333   0.2500000), wk =   0.0046296
        k(   12) = (   0.0000000   0.0833333   0.3333333), wk =   0.0046296
        k(   13) = (  -0.0000000   0.0833333   0.4166667), wk =   0.0046296
        k(   14) = (   0.0000000   0.0833333  -0.5000000), wk =   0.0046296
        k(   15) = (   0.0000000   0.0833333  -0.4166667), wk =   0.0046296
        k(   16) = (   0.0000000   0.0833333  -0.3333333), wk =   0.0046296
        k(   17) = (   0.0000000   0.0833333  -0.2500000), wk =   0.0046296
        k(   18) = (   0.0000000   0.0833333  -0.1666667), wk =   0.0046296
        k(   19) = (   0.0000000   0.0833333  -0.0833333), wk =   0.0046296
        k(   20) = (   0.0000000   0.1666667   0.0000000), wk =   0.0023148
        k(   21) = (   0.0000000   0.1666667   0.0833333), wk =   0.0046296
        k(   22) = (   0.0000000   0.1666667   0.1666667), wk =   0.0046296
        k(   23) = (  -0.0000000   0.1666667   0.2500000), wk =   0.0046296
        k(   24) = (   0.0000000   0.1666667   0.3333333), wk =   0.0046296
        k(   25) = (  -0.0000000   0.1666667   0.4166667), wk =   0.0046296
        k(   26) = (   0.0000000   0.1666667  -0.5000000), wk =   0.0046296
        k(   27) = (   0.0000000   0.1666667  -0.4166667), wk =   0.0046296
        k(   28) = (   0.0000000   0.1666667  -0.3333333), wk =   0.0046296
        k(   29) = (   0.0000000   0.1666667  -0.2500000), wk =   0.0046296
        k(   30) = (   0.0000000   0.1666667  -0.1666667), wk =   0.0046296
        k(   31) = (   0.0000000   0.1666667  -0.0833333), wk =   0.0046296
        k(   32) = (   0.0000000   0.2500000   0.0000000), wk =   0.0023148
        k(   33) = (   0.0000000   0.2500000   0.0833333), wk =   0.0046296
        k(   34) = (   0.0000000   0.2500000   0.1666667), wk =   0.0046296
        k(   35) = (  -0.0000000   0.2500000   0.2500000), wk =   0.0046296
        k(   36) = (   0.0000000   0.2500000   0.3333333), wk =   0.0046296
        k(   37) = (  -0.0000000   0.2500000   0.4166667), wk =   0.0046296
        k(   38) = (   0.0000000   0.2500000  -0.5000000), wk =   0.0046296
        k(   39) = (   0.0000000   0.2500000  -0.4166667), wk =   0.0046296
        k(   40) = (   0.0000000   0.2500000  -0.3333333), wk =   0.0046296
        k(   41) = (   0.0000000   0.2500000  -0.2500000), wk =   0.0046296
        k(   42) = (   0.0000000   0.2500000  -0.1666667), wk =   0.0046296
        k(   43) = (   0.0000000   0.2500000  -0.0833333), wk =   0.0046296
        k(   44) = (   0.0000000   0.3333333   0.0000000), wk =   0.0023148
        k(   45) = (   0.0000000   0.3333333   0.0833333), wk =   0.0046296
        k(   46) = (   0.0000000   0.3333333   0.1666667), wk =   0.0046296
        k(   47) = (  -0.0000000   0.3333333   0.2500000), wk =   0.0046296
        k(   48) = (   0.0000000   0.3333333   0.3333333), wk =   0.0046296
        k(   49) = (  -0.0000000   0.3333333   0.4166667), wk =   0.0046296
        k(   50) = (   0.0000000   0.3333333  -0.5000000), wk =   0.0046296
        k(   51) = (   0.0000000   0.3333333  -0.4166667), wk =   0.0046296
        k(   52) = (   0.0000000   0.3333333  -0.3333333), wk =   0.0046296
        k(   53) = (   0.0000000   0.3333333  -0.2500000), wk =   0.0046296
        k(   54) = (   0.0000000   0.3333333  -0.1666667), wk =   0.0046296
        k(   55) = (   0.0000000   0.3333333  -0.0833333), wk =   0.0046296
        k(   56) = (   0.0000000   0.4166667   0.0000000), wk =   0.0023148
        k(   57) = (   0.0000000   0.4166667   0.0833333), wk =   0.0046296
        k(   58) = (   0.0000000   0.4166667   0.1666667), wk =   0.0046296
        k(   59) = (  -0.0000000   0.4166667   0.2500000), wk =   0.0046296
        k(   60) = (   0.0000000   0.4166667   0.3333333), wk =   0.0046296
[...]
        k(  462) = (   0.4166667  -0.3333333  -0.0833333), wk =   0.0046296
        k(  463) = (   0.4166667  -0.2500000   0.0000000), wk =   0.0023148
        k(  464) = (   0.4166667  -0.2500000  -0.0833333), wk =   0.0046296
        k(  465) = (   0.4166667  -0.1666667   0.0000000), wk =   0.0023148
        k(  466) = (   0.4166667  -0.1666667  -0.0833333), wk =   0.0046296
        k(  467) = (   0.4166667  -0.0833333   0.0000000), wk =   0.0023148
        k(  468) = (   0.4166667  -0.0833333  -0.1666667), wk =   0.0023148
        k(  469) = (   0.4166667  -0.0833333  -0.0833333), wk =   0.0046296
        k(  470) = (  -0.5000000   0.0000000   0.0000000), wk =   0.0011574
        k(  471) = (  -0.5000000   0.0833333   0.0000000), wk =   0.0023148
        k(  472) = (  -0.5000000   0.1666667   0.0000000), wk =   0.0023148
        k(  473) = (  -0.5000000   0.2500000   0.0000000), wk =   0.0023148
        k(  474) = (  -0.5000000   0.3333333   0.0000000), wk =   0.0023148
        k(  475) = (  -0.5000000   0.4166667   0.0000000), wk =   0.0023148
        k(  476) = (  -0.5000000  -0.5000000   0.0000000), wk =   0.0011574

     Initial potential from superposition of free atoms

     starting charge    3.99933, renormalised to    4.00000
     Starting wfc are    4 randomized atomic wfcs +    2 random wfc

     Self-consistent Calculation

     iteration #  1     ecut=    35.00 Ry     beta= 0.70
     Davidson diagonalization with overlap
     ethr =  1.00E-02,  avg # of iterations =  4.4

     Threshold (ethr) on eigenvalues was too large:
     Diagonalizing with lowered threshold

     Davidson diagonalization with overlap
     ethr =  8.59E-05,  avg # of iterations =  2.4

     total energy              =      -9.52032706 Ry
     Harris-Foulkes estimate   =      -9.52144675 Ry
     estimated scf accuracy    <       0.00345520 Ry

[...]

     total energy              =      -9.52047835 Ry
     Harris-Foulkes estimate   =      -9.52047814 Ry
     estimated scf accuracy    <       0.00000106 Ry

     iteration #  4     ecut=    35.00 Ry     beta= 0.70
     Davidson diagonalization with overlap
     ethr =  2.66E-08,  avg # of iterations =  2.9

     End of self-consistent calculation

          k = 0.0000 0.0000 0.0000 (   531 PWs)   bands (ev):

    -5.3165  12.7040  12.7040  12.7040  16.2306  16.2306

     occupation numbers
     1.0000   0.0000   0.0000   0.0000   0.0000   0.0000

          k =-0.0481-0.0340 0.0833 (   534 PWs)   bands (ev):

[...]

          k = 0.5292-0.2381-0.0833 (   523 PWs)   bands (ev):

[...]

          k =-0.5774-0.4082 0.0000 (   524 PWs)   bands (ev):

     1.0159   2.2615   7.9617   7.9617  10.7444  11.0133

     occupation numbers
     1.0000   1.0000   0.0000   0.0000   0.0000   0.0000

     the Fermi energy is     5.7111 ev

!    total energy              =      -9.52047939 Ry
     Harris-Foulkes estimate   =      -9.52047940 Ry
     estimated scf accuracy    <       0.00000005 Ry

     The total energy is the sum of the following terms:

     one-electron contribution =       3.16511773 Ry
     hartree contribution      =       0.13260758 Ry
     xc contribution           =      -4.09453218 Ry
     ewald contribution        =      -8.72361319 Ry
     smearing contrib. (-TS)   =      -0.00005932 Ry

     convergence has been achieved in   4 iterations

     Forces acting on atoms (cartesian axes, Ry/au):

     atom    1 type  1   force =     0.00000000    0.00000000    0.00000000
     The non-local contrib.  to forces
     atom    1 type  1   force =     0.00000000    0.00000000    0.00000000
     The ionic contribution  to forces
     atom    1 type  1   force =     0.00000000    0.00000000    0.00000000
     The local contribution  to forces
     atom    1 type  1   force =    -0.00000000    0.00000000   -0.00000000
     The core correction contribution to forces
     atom    1 type  1   force =     0.00000000   -0.00000000   -0.00000000
     The Hubbard contrib.    to forces
     atom    1 type  1   force =     0.00000000    0.00000000    0.00000000
     The SCF correction term to forces
     atom    1 type  1   force =     0.00000000    0.00000000    0.00000000

     Total force =     0.000000     Total SCF correction =     0.000000

     BFGS Geometry Optimization

     bfgs converged in   1 scf cycles and   0 bfgs steps
     (criteria: energy <  1.0E-04 Ry, force <  1.0E-03 Ry/Bohr)

     End of BFGS Geometry Optimization

     Final energy   =      -9.5204793851 Ry
Begin final coordinates

ATOMIC_POSITIONS (crystal)
Si       0.000000000   0.000000000   0.000000000
End final coordinates

     General routines

     Parallel routines

   This run was terminated on:   0:10: 4  31Jan2019

   JOB DONE.