     Program PWSCF v.6.2 (svn rev. 14038) starts on 24Jan2019 at 12:26:39

     Reading input from ./Al18.in
Warning: card &IONS ignored
Warning: card / ignored
Warning: card &CELL ignored
Warning: card / ignored

     Current dimensions of program PWSCF are:
     Max number of different atomic species (ntypx) = 10
     Max number of k-points (npk) =  40000
     Max angular momentum in pseudopotentials (lmaxx) =  3
     Message from routine iosys:
     minimal I/O required, wf_collect reset to FALSE

     Subspace diagonalization in iterative solution of the eigenvalue problem:
     a serial algorithm will be used

     bravais-lattice index     =            0
     lattice parameter (alat)  =       5.3970  a.u.
     unit-cell volume          =     111.1567 (a.u.)^3
     number of atoms/cell      =            1
     number of atomic types    =            1
     number of electrons       =         3.00
     number of Kohn-Sham states=            6
     kinetic-energy cutoff     =      35.0000  Ry
     charge density cutoff     =     140.0000  Ry
     convergence threshold     =      1.0E-05
     mixing beta               =       0.7000
     number of iterations used =            8  plain     mixing
     Exchange-correlation      = SLA  PZ   NOGX NOGC ( 1  1  0  0 0 0)

     celldm(1)=   5.396971  celldm(2)=   0.000000  celldm(3)=   0.000000
     celldm(4)=   0.000000  celldm(5)=   0.000000  celldm(6)=   0.000000

     crystal axes: (cart. coord. in units of alat)
               a(1) = (   0.866025   0.000000   0.500000 )
               a(2) = (   0.288675   0.816497   0.500000 )
               a(3) = (   0.000000   0.000000   1.000000 )

     reciprocal axes: (cart. coord. in units 2 pi/alat)
               b(1) = (  1.154701 -0.408248  0.000000 )
               b(2) = (  0.000000  1.224745  0.000000 )
               b(3) = ( -0.577350 -0.408248  1.000000 )

     PseudoPot. # 1 for Al read from file:
     ./al_lda_v1.uspp.F.UPF
     MD5 check sum: 51a9e5980debfdd3404790b200e14add
     Pseudo is Ultrasoft + core correction, Zval =  3.0
     Generated by new atomic code, or converted to UPF format
     Using radial grid of  893 points,  3 beta functions with:
                l(1) =   0
                l(2) =   1
                l(3) =   2
     Q(r) pseudized with  8 coefficients,  rinner =    0.900   0.900   0.900
                                                       0.900   0.900

     atomic species   valence    mass     pseudopotential
        Al             3.00    26.98150     Al( 1.00)

      4 Sym. Ops., with inversion, found

                                    s                        frac. trans.

      isym =  1     identity

 cryst.   s( 1) = (     1          0          0      )
                  (     0          1          0      )
                  (     0          0          1      )

 cart.    s( 1) = (  1.0000000  0.0000000  0.0000000 )
                  (  0.0000000  1.0000000  0.0000000 )
                  (  0.0000000 -0.0000000  1.0000000 )

      isym =  2     180 deg rotation - cart. axis [0,0,1]

[...]

      isym =  3     inversion

[...]

      isym =  4     inv. 180 deg rotation - cart. axis [0,0,1]

 cryst.   s( 4) = (     1          0         -1      )
                  (     0          1         -1      )
                  (     0          0         -1      )

 cart.    s( 4) = (  1.0000000  0.0000000  0.0000000 )
                  (  0.0000000  1.0000000  0.0000000 )
                  ( -0.0000004 -0.0000003 -1.0000000 )

   Cartesian axes

     site n.     atom                  positions (alat units)
         1           Al  tau(   1) = (   0.0000000   0.0000000   0.0000000  )

   Crystallographic axes

     site n.     atom                  positions (cryst. coord.)
         1           Al  tau(   1) = (  0.0000000  0.0000000  0.0000000  )

     number of k points=  1550  Marzari-Vanderbilt smearing, width (Ry)=  0.0100
                       cart. coord. in units 2pi/alat
        k(    1) = (   0.0000000   0.0000000   0.0000000), wk =   0.0003429
        k(    2) = (  -0.0320750  -0.0226805   0.0555555), wk =   0.0013717
        k(    3) = (  -0.0641500  -0.0453609   0.1111111), wk =   0.0013717
        k(    4) = (  -0.0962250  -0.0680414   0.1666666), wk =   0.0013717
        k(    5) = (  -0.1283000  -0.0907218   0.2222222), wk =   0.0013717
        k(    6) = (  -0.1603750  -0.1134023   0.2777777), wk =   0.0013717
        k(    7) = (  -0.1924500  -0.1360827   0.3333332), wk =   0.0013717
        k(    8) = (  -0.2245250  -0.1587632   0.3888888), wk =   0.0013717
        k(    9) = (  -0.2566000  -0.1814436   0.4444443), wk =   0.0013717
        k(   10) = (   0.2886750   0.2041241  -0.4999999), wk =   0.0006859
        k(   11) = (   0.0000000   0.0680414   0.0000000), wk =   0.0006859
        k(   12) = (  -0.0320750   0.0453609   0.0555555), wk =   0.0013717
        k(   13) = (  -0.0641500   0.0226805   0.1111111), wk =   0.0013717
        k(   14) = (  -0.0962250   0.0000000   0.1666666), wk =   0.0013717
        k(   15) = (  -0.1283000  -0.0226804   0.2222222), wk =   0.0013717
        k(   16) = (  -0.1603750  -0.0453609   0.2777777), wk =   0.0013717
        k(   17) = (  -0.1924500  -0.0680413   0.3333332), wk =   0.0013717
        k(   18) = (  -0.2245250  -0.0907218   0.3888888), wk =   0.0013717
        k(   19) = (  -0.2566000  -0.1134022   0.4444443), wk =   0.0013717
        k(   20) = (   0.2886750   0.2721654  -0.4999999), wk =   0.0013717
        k(   21) = (   0.2566000   0.2494850  -0.4444443), wk =   0.0013717
        k(   22) = (   0.2245250   0.2268045  -0.3888888), wk =   0.0013717
        k(   23) = (   0.1924500   0.2041241  -0.3333332), wk =   0.0013717
        k(   24) = (   0.1603750   0.1814436  -0.2777777), wk =   0.0013717
        k(   25) = (   0.1283000   0.1587632  -0.2222222), wk =   0.0013717
        k(   26) = (   0.0962250   0.1360827  -0.1666666), wk =   0.0013717
        k(   27) = (   0.0641500   0.1134023  -0.1111111), wk =   0.0013717
        k(   28) = (   0.0320750   0.0907218  -0.0555555), wk =   0.0013717
        k(   29) = (   0.0000000   0.1360828   0.0000000), wk =   0.0006859
        k(   30) = (  -0.0320750   0.1134023   0.0555555), wk =   0.0013717
        k(   31) = (  -0.0641500   0.0907219   0.1111111), wk =   0.0013717
        k(   32) = (  -0.0962250   0.0680414   0.1666666), wk =   0.0013717
        k(   33) = (  -0.1283000   0.0453610   0.2222222), wk =   0.0013717
        k(   34) = (  -0.1603750   0.0226805   0.2777777), wk =   0.0013717
        k(   35) = (  -0.1924500   0.0000000   0.3333332), wk =   0.0013717
        k(   36) = (  -0.2245250  -0.0226804   0.3888888), wk =   0.0013717
        k(   37) = (  -0.2566000  -0.0453609   0.4444443), wk =   0.0013717
        k(   38) = (   0.2886750   0.3402068  -0.4999999), wk =   0.0013717
        k(   39) = (   0.2566000   0.3175264  -0.4444443), wk =   0.0013717
        k(   40) = (   0.2245250   0.2948459  -0.3888888), wk =   0.0013717
        k(   41) = (   0.1924500   0.2721655  -0.3333332), wk =   0.0013717
        k(   42) = (   0.1603750   0.2494850  -0.2777777), wk =   0.0013717
        k(   43) = (   0.1283000   0.2268046  -0.2222222), wk =   0.0013717
        k(   44) = (   0.0962250   0.2041241  -0.1666666), wk =   0.0013717
        k(   45) = (   0.0641500   0.1814437  -0.1111111), wk =   0.0013717
        k(   46) = (   0.0320750   0.1587632  -0.0555555), wk =   0.0013717
        k(   47) = (   0.0000000   0.2041241   0.0000000), wk =   0.0006859
        k(   48) = (  -0.0320750   0.1814437   0.0555555), wk =   0.0013717
        k(   49) = (  -0.0641500   0.1587632   0.1111111), wk =   0.0013717
        k(   50) = (  -0.0962250   0.1360828   0.1666666), wk =   0.0013717
        k(   51) = (  -0.1283000   0.1134023   0.2222222), wk =   0.0013717
        k(   52) = (  -0.1603750   0.0907219   0.2777777), wk =   0.0013717
        k(   53) = (  -0.1924500   0.0680414   0.3333332), wk =   0.0013717
        k(   54) = (  -0.2245250   0.0453610   0.3888888), wk =   0.0013717
        k(   55) = (  -0.2566000   0.0226805   0.4444443), wk =   0.0013717
        k(   56) = (   0.2886750   0.4082482  -0.4999999), wk =   0.0013717
        k(   57) = (   0.2566000   0.3855677  -0.4444443), wk =   0.0013717
        k(   58) = (   0.2245250   0.3628873  -0.3888888), wk =   0.0013717
        k(   59) = (   0.1924500   0.3402068  -0.3333332), wk =   0.0013717
        k(   60) = (   0.1603750   0.3175264  -0.2777777), wk =   0.0013717
[...]
        k( 1536) = (   0.5132002  -0.3175264   0.0000000), wk =   0.0006859
        k( 1537) = (   0.5452752  -0.2948460  -0.0555555), wk =   0.0013717
        k( 1538) = (   0.5132002  -0.2494851   0.0000000), wk =   0.0006859
        k( 1539) = (   0.5773502  -0.2041242  -0.1111111), wk =   0.0006859
        k( 1540) = (   0.5452752  -0.2268046  -0.0555555), wk =   0.0013717
        k( 1541) = (  -0.5773503   0.2041241   0.0000000), wk =   0.0003429
        k( 1542) = (  -0.5773503   0.2721655   0.0000000), wk =   0.0006859
        k( 1543) = (  -0.5773503   0.3402069   0.0000000), wk =   0.0006859
        k( 1544) = (  -0.5773503   0.4082483   0.0000000), wk =   0.0006859
        k( 1545) = (  -0.5773503   0.4762896   0.0000000), wk =   0.0006859
        k( 1546) = (  -0.5773503   0.5443310   0.0000000), wk =   0.0006859
        k( 1547) = (  -0.5773503   0.6123724   0.0000000), wk =   0.0006859
        k( 1548) = (  -0.5773503   0.6804138   0.0000000), wk =   0.0006859
        k( 1549) = (  -0.5773503   0.7484552   0.0000000), wk =   0.0006859
        k( 1550) = (  -0.5773503  -0.4082483   0.0000000), wk =   0.0003429

                       cryst. coord.
        k(    1) = (   0.0000000   0.0000000   0.0000000), wk =   0.0003429
        k(    2) = (   0.0000000  -0.0000000   0.0555556), wk =   0.0013717
        k(    3) = (   0.0000000  -0.0000000   0.1111111), wk =   0.0013717
        k(    4) = (   0.0000000   0.0000000   0.1666667), wk =   0.0013717
        k(    5) = (   0.0000000  -0.0000000   0.2222222), wk =   0.0013717
        k(    6) = (   0.0000000  -0.0000000   0.2777778), wk =   0.0013717
        k(    7) = (   0.0000000   0.0000000   0.3333333), wk =   0.0013717
        k(    8) = (   0.0000000   0.0000000   0.3888889), wk =   0.0013717
        k(    9) = (   0.0000000  -0.0000000   0.4444444), wk =   0.0013717
        k(   10) = (  -0.0000000   0.0000000  -0.5000000), wk =   0.0006859
        k(   11) = (   0.0000000   0.0555556   0.0000000), wk =   0.0006859
        k(   12) = (   0.0000000   0.0555556   0.0555556), wk =   0.0013717
        k(   13) = (   0.0000000   0.0555556   0.1111111), wk =   0.0013717
        k(   14) = (   0.0000000   0.0555556   0.1666667), wk =   0.0013717
        k(   15) = (   0.0000000   0.0555556   0.2222222), wk =   0.0013717
        k(   16) = (   0.0000000   0.0555556   0.2777778), wk =   0.0013717
        k(   17) = (   0.0000000   0.0555556   0.3333333), wk =   0.0013717
        k(   18) = (   0.0000000   0.0555556   0.3888889), wk =   0.0013717
        k(   19) = (   0.0000000   0.0555556   0.4444444), wk =   0.0013717
        k(   20) = (  -0.0000000   0.0555556  -0.5000000), wk =   0.0013717
        k(   21) = (  -0.0000000   0.0555556  -0.4444444), wk =   0.0013717
        k(   22) = (  -0.0000000   0.0555556  -0.3888889), wk =   0.0013717
        k(   23) = (  -0.0000000   0.0555556  -0.3333333), wk =   0.0013717
        k(   24) = (   0.0000000   0.0555556  -0.2777778), wk =   0.0013717
        k(   25) = (  -0.0000000   0.0555556  -0.2222222), wk =   0.0013717
        k(   26) = (  -0.0000000   0.0555556  -0.1666667), wk =   0.0013717
        k(   27) = (  -0.0000000   0.0555556  -0.1111111), wk =   0.0013717
        k(   28) = (  -0.0000000   0.0555556  -0.0555556), wk =   0.0013717
        k(   29) = (   0.0000000   0.1111111   0.0000000), wk =   0.0006859
        k(   30) = (   0.0000000   0.1111111   0.0555556), wk =   0.0013717
        k(   31) = (   0.0000000   0.1111111   0.1111111), wk =   0.0013717
        k(   32) = (   0.0000000   0.1111111   0.1666667), wk =   0.0013717
        k(   33) = (   0.0000000   0.1111111   0.2222222), wk =   0.0013717
        k(   34) = (   0.0000000   0.1111111   0.2777778), wk =   0.0013717
        k(   35) = (   0.0000000   0.1111111   0.3333333), wk =   0.0013717
        k(   36) = (   0.0000000   0.1111111   0.3888889), wk =   0.0013717
        k(   37) = (   0.0000000   0.1111111   0.4444444), wk =   0.0013717
        k(   38) = (  -0.0000000   0.1111111  -0.5000000), wk =   0.0013717
        k(   39) = (  -0.0000000   0.1111111  -0.4444444), wk =   0.0013717
        k(   40) = (  -0.0000000   0.1111111  -0.3888889), wk =   0.0013717
        k(   41) = (  -0.0000000   0.1111111  -0.3333333), wk =   0.0013717
        k(   42) = (   0.0000000   0.1111111  -0.2777778), wk =   0.0013717
        k(   43) = (  -0.0000000   0.1111111  -0.2222222), wk =   0.0013717
        k(   44) = (  -0.0000000   0.1111111  -0.1666667), wk =   0.0013717
        k(   45) = (  -0.0000000   0.1111111  -0.1111111), wk =   0.0013717
        k(   46) = (  -0.0000000   0.1111111  -0.0555556), wk =   0.0013717
        k(   47) = (   0.0000000   0.1666667   0.0000000), wk =   0.0006859
        k(   48) = (   0.0000000   0.1666667   0.0555556), wk =   0.0013717
        k(   49) = (   0.0000000   0.1666667   0.1111111), wk =   0.0013717
        k(   50) = (   0.0000000   0.1666667   0.1666667), wk =   0.0013717
        k(   51) = (   0.0000000   0.1666667   0.2222222), wk =   0.0013717
        k(   52) = (   0.0000000   0.1666667   0.2777778), wk =   0.0013717
        k(   53) = (   0.0000000   0.1666667   0.3333333), wk =   0.0013717
        k(   54) = (   0.0000000   0.1666667   0.3888889), wk =   0.0013717
        k(   55) = (   0.0000000   0.1666667   0.4444444), wk =   0.0013717
        k(   56) = (  -0.0000000   0.1666667  -0.5000000), wk =   0.0013717
        k(   57) = (  -0.0000000   0.1666667  -0.4444444), wk =   0.0013717
        k(   58) = (  -0.0000000   0.1666667  -0.3888889), wk =   0.0013717
        k(   59) = (  -0.0000000   0.1666667  -0.3333333), wk =   0.0013717
        k(   60) = (   0.0000000   0.1666667  -0.2777778), wk =   0.0013717
[...]
        k( 1536) = (   0.4444444  -0.1111111   0.0000000), wk =   0.0006859
        k( 1537) = (   0.4444444  -0.1111111  -0.0555556), wk =   0.0013717
        k( 1538) = (   0.4444444  -0.0555556   0.0000000), wk =   0.0006859
        k( 1539) = (   0.4444444  -0.0555556  -0.1111111), wk =   0.0006859
        k( 1540) = (   0.4444444  -0.0555556  -0.0555556), wk =   0.0013717
        k( 1541) = (  -0.5000000   0.0000000   0.0000000), wk =   0.0003429
        k( 1542) = (  -0.5000000   0.0555556   0.0000000), wk =   0.0006859
        k( 1543) = (  -0.5000000   0.1111111   0.0000000), wk =   0.0006859
        k( 1544) = (  -0.5000000   0.1666667   0.0000000), wk =   0.0006859
        k( 1545) = (  -0.5000000   0.2222222   0.0000000), wk =   0.0006859
        k( 1546) = (  -0.5000000   0.2777778   0.0000000), wk =   0.0006859
        k( 1547) = (  -0.5000000   0.3333333   0.0000000), wk =   0.0006859
        k( 1548) = (  -0.5000000   0.3888889   0.0000000), wk =   0.0006859
        k( 1549) = (  -0.5000000   0.4444444   0.0000000), wk =   0.0006859
        k( 1550) = (  -0.5000000  -0.5000000   0.0000000), wk =   0.0003429

     Initial potential from superposition of free atoms

     starting charge    2.99781, renormalised to    3.00000
     Starting wfc are    4 randomized atomic wfcs +    2 random wfc

     Self-consistent Calculation

     iteration #  1     ecut=    35.00 Ry     beta= 0.70
     Davidson diagonalization with overlap
     ethr =  1.00E-02,  avg # of iterations =  4.6

     Threshold (ethr) on eigenvalues was too large:
     Diagonalizing with lowered threshold

     Davidson diagonalization with overlap
     ethr =  2.00E-04,  avg # of iterations =  1.4

     total energy              =      -6.64350533 Ry
     Harris-Foulkes estimate   =      -6.64597368 Ry
     estimated scf accuracy    <       0.00598956 Ry

[...]

     total energy              =      -6.64356622 Ry
     Harris-Foulkes estimate   =      -6.64368447 Ry
     estimated scf accuracy    <       0.00032028 Ry

     iteration #  3     ecut=    35.00 Ry     beta= 0.70
     Davidson diagonalization with overlap
     ethr =  1.07E-05,  avg # of iterations =  1.7

     End of self-consistent calculation

          k = 0.0000 0.0000 0.0000 (   387 PWs)   bands (ev):

    -3.4449  20.2884  20.2887  21.4083  21.4083  21.4083

     occupation numbers
     1.0000   0.0000   0.0000   0.0000   0.0000   0.0000

          k =-0.0321-0.0227 0.0556 (   378 PWs)   bands (ev):

[...]

          k = 0.5453-0.2268-0.0556 (   389 PWs)   bands (ev):

[...]

          k =-0.5774-0.4082 0.0000 (   388 PWs)   bands (ev):

     4.7792   6.0991  13.0558  13.2155  13.2155  16.5581

     occupation numbers
     1.0000   1.0000   0.0000   0.0000   0.0000   0.0000

     the Fermi energy is     7.6997 ev

!    total energy              =      -6.64358141 Ry
     Harris-Foulkes estimate   =      -6.64358173 Ry
     estimated scf accuracy    <       0.00000131 Ry

     The total energy is the sum of the following terms:

     one-electron contribution =       2.98360984 Ry
     hartree contribution      =       0.00850124 Ry
     xc contribution           =      -4.22930924 Ry
     ewald contribution        =      -5.40634338 Ry
     smearing contrib. (-TS)   =      -0.00003987 Ry

     convergence has been achieved in   3 iterations

     General routines

     Parallel routines

   This run was terminated on:  12:27:25  24Jan2019

   JOB DONE.